frenkel step_66
1.01693838334
  16.5412228322    0.0000000000    0.0000000000
   0.0000000000   10.3612888280    0.0000000000
   0.0000000000    0.0000000000    4.0414000000
40
Direct
   0.0298407977    0.1437265319    0.5074702211
   0.6828973196    0.0529981934    0.0066268064
   0.6058840847    0.2221536318    0.5046123667
   0.7996865795    0.0844374649    0.4944782247
   0.7647573786    0.2674866101    0.0124776921
   0.6105952019    0.4162900822    0.0062035291
   0.6116535505    0.6229720434    0.5141968083
   0.7348481506    0.4711783042    0.4597331096
   0.7399326175    0.6560967392   -0.0205568028
   0.6092491911    0.8302856969    0.0179571107
   0.7135805705    0.8594757483    0.5074797696
   0.9140345391    0.1126731773   -0.0083038974
   0.8830060144    0.3131080557    0.5071749114
  -0.0029384300    0.3488183545    0.0053188596
   0.8656229658    0.4959748764    0.0036855764
   0.8542156816    0.6882520098    0.4946550061
   0.9872291454    0.5552178751    0.5306746814
   0.9827382591    0.7384267467   -0.0000400413
   0.8396028154    0.8838170873   -0.0147979146
   0.9589466929    0.9161016320    0.4973653503
   0.5301415721    0.0405218058    0.0177399802
   0.4189101032    0.0865246773    0.4911646381
   0.4516616461    0.2753951176   -0.0058068086
   0.4780755587    0.4535415938    0.4919925101
   0.4833667972    0.6436334393    0.0165096817
   0.5039491322    0.8490192823    0.5039490632
   0.2982459972    0.1209839745    0.0138695785
   0.3323589839    0.3030367044    0.4877775718
   0.1908164039    0.1464369081    0.5078905593
   0.2150139486    0.3489625832   -0.0030403030
   0.3517766520    0.5001992519   -0.0339318681
   0.3661693479    0.6871930597    0.4776236484
   0.2329762325    0.5423208342    0.4962124278
   0.2317399822    0.7332227202    0.0165328053
   0.3805940370    0.8790184646   -0.0345794318
   0.2623747733    0.9153290469    0.5076620324
   0.1126205357    0.3717272377    0.5075536470
   0.1124449636    0.5598357778   -0.0185794034
   0.1070004191    0.7657230203    0.5038661788
   0.1099775093    0.9764485585    0.0010987219
