frenkel step_87
1.01693838334
  16.5412228322    0.0000000000    0.0000000000
   0.0000000000   10.3612888280    0.0000000000
   0.0000000000    0.0000000000    4.0414000000
40
Direct
   0.0280259517    0.1478980150    0.5019393879
   0.6836682483    0.0481322377    0.0108579101
   0.6033747245    0.2236856589    0.5057613474
   0.8007969349    0.0839503552    0.4984868418
   0.7634088052    0.2686114247    0.0081303967
   0.6134569227    0.4177189443    0.0099290104
   0.6168492024    0.6187272881    0.5136797175
   0.7355785636    0.4640020233    0.4773475145
   0.7355644334    0.6556861330   -0.0368325834
   0.6088806790    0.8231493326    0.0214443397
   0.7142522062    0.8633419527    0.5175305599
   0.9138943082    0.1129100491   -0.0126921468
   0.8840318901    0.3140785770    0.5061330348
  -0.0014384639    0.3427318498    0.0077014227
   0.8648023003    0.5016748128    0.0020349974
   0.8530276154    0.6875590805    0.4863709066
   0.9883613871    0.5540652076    0.5335951954
   0.9811459479    0.7364152880    0.0048961153
   0.8399440152    0.8778879942   -0.0045576706
   0.9558986092    0.9149270536    0.4883753813
   0.5305750206    0.0437971318    0.0187719943
   0.4210995462    0.0855824738    0.4910825165
   0.4535960962    0.2725153535   -0.0029259411
   0.4773623349    0.4518095279    0.4952039697
   0.4832412968    0.6473354626    0.0258394993
   0.5068587181    0.8492849623    0.5109659264
   0.3002011867    0.1189943811    0.0209386734
   0.3337385437    0.3081754604    0.4877960779
   0.1896701280    0.1483573477    0.5063306817
   0.2172293153    0.3488790055    0.0039848819
   0.3502107766    0.4990463128   -0.0350901808
   0.3668717623    0.6873554660    0.4812240991
   0.2368044832    0.5422936645    0.4864414685
   0.2299374559    0.7320024654    0.0046642690
   0.3846690154    0.8791906932   -0.0305628823
   0.2609026241    0.9119186590    0.5205209651
   0.1120324059    0.3702173476    0.5004550200
   0.1145410379    0.5627702217   -0.0204612325
   0.1090573621    0.7612667833    0.5175993894
   0.1076340806    0.9791339717    0.0011076373
