frenkel step_84
1.01693838334
  16.5412228322    0.0000000000    0.0000000000
   0.0000000000   10.3612888280    0.0000000000
   0.0000000000    0.0000000000    4.0414000000
40
Direct
   0.0289350992    0.1501246299    0.4974896149
   0.6855087474    0.0490150731    0.0156388259
   0.6043522518    0.2226014408    0.5003275601
   0.7998235809    0.0851891971    0.4943850653
   0.7645474765    0.2664169792    0.0138745604
   0.6144814166    0.4209474197    0.0096937679
   0.6157620701    0.6195194352    0.5183499258
   0.7339071407    0.4638906956    0.4708820182
   0.7360126336    0.6535421376   -0.0406846591
   0.6095117759    0.8236004199    0.0185677324
   0.7142314637    0.8626276805    0.5237933785
   0.9131350889    0.1084106783   -0.0210019841
   0.8842809859    0.3127525108    0.5009371952
  -0.0014902947    0.3450844720    0.0029959777
   0.8666259362    0.5010442498   -0.0029875571
   0.8520692324    0.6878074814    0.4837045477
   0.9860938713    0.5543316057    0.5262360689
   0.9831564890    0.7387901492    0.0058436589
   0.8407734519    0.8822536618   -0.0103510463
   0.9558986092    0.9149270536    0.4883753813
   0.5303948513    0.0455110780    0.0216705131
   0.4206426624    0.0862039398    0.4935463980
   0.4535646548    0.2701079914   -0.0021393297
   0.4780705561    0.4520727670    0.5012369314
   0.4829603552    0.6479998349    0.0210781570
   0.5060801911    0.8496203907    0.5089098058
   0.3014226697    0.1199996204    0.0196432436
   0.3343575460    0.3061244156    0.4871064411
   0.1919678511    0.1453995407    0.5140344656
   0.2155495314    0.3483162815   -0.0011160162
   0.3495478736    0.5001070847   -0.0342613988
   0.3663526616    0.6866572413    0.4770904708
   0.2350642162    0.5420723932    0.4845086703
   0.2291527173    0.7340923596    0.0006301029
   0.3827849340    0.8783274131   -0.0324190189
   0.2596874426    0.9126851945    0.5150423261
   0.1097077860    0.3710474675    0.5004355795
   0.1132685854    0.5627907150   -0.0228709115
   0.1082671654    0.7600363470    0.5230320029
   0.1073655031    0.9790729115    0.0001304594
