frenkel step_20
1.01693838334
  16.5412228322    0.0000000000    0.0000000000
   0.0000000000   10.3612888280    0.0000000000
   0.0000000000    0.0000000000    4.0414000000
40
Direct
   0.0319441148    0.1478674646    0.5009832880
   0.6868143494    0.0445741244   -0.0069929041
   0.6061834496    0.2231082161    0.4977328421
   0.7994950711    0.0829220473    0.5088773677
   0.7635650503    0.2758005181    0.0112067251
   0.6127064928    0.4233313555   -0.0069835942
   0.6127269381    0.6236774979    0.5033232951
   0.7360527135    0.4594025443    0.4927382858
   0.7338910623    0.6525536677   -0.0091940812
   0.6098220009    0.8211572223    0.0082564972
   0.7166691098    0.8566898630    0.5006986319
   0.9190507386    0.1102359840    0.0051718453
   0.8845691526    0.3154748498    0.5074274717
   0.0019801809    0.3391525649   -0.0015221887
   0.8703429357    0.5010043772   -0.0006982982
   0.8545323643    0.6894728748    0.4989290879
   0.9884974031    0.5499828932    0.5154693447
   0.9819620519    0.7423845676   -0.0131203662
   0.8393393685    0.8829903219   -0.0027632000
   0.9616512309    0.9227280460    0.5096278007
   0.5329657782    0.0421590489    0.0001210513
   0.4176905669    0.0791645014    0.4850526256
   0.4580129291    0.2743093825   -0.0004515022
   0.4790755184    0.4598755488    0.5070523072
   0.4872766826    0.6456882730    0.0089372436
   0.5034948295    0.8441881363    0.4904619003
   0.3001372788    0.1076365893    0.0065561499
   0.3364466251    0.3077116966    0.4908445787
   0.1888679564    0.1462636920    0.4971066893
   0.2191006817    0.3389082274   -0.0037779167
   0.3532768669    0.4974766235   -0.0057070557
   0.3656969280    0.6829927008    0.4868389076
   0.2329838638    0.5449580966    0.4953267647
   0.2349884956    0.7325693390    0.0015044311
   0.3836395359    0.8849814452   -0.0134159319
   0.2608049384    0.9124913518    0.5012730138
   0.1123392039    0.3733948538    0.5019306165
   0.1129296769    0.5637898234   -0.0018192570
   0.1083800468    0.7714196815    0.5059580436
   0.1090857719    0.9735753981   -0.0049569226
