frenkel step_67
1.01693838334
  16.5412228322    0.0000000000    0.0000000000
   0.0000000000   10.3612888280    0.0000000000
   0.0000000000    0.0000000000    4.0414000000
40
Direct
   0.0325315762    0.1464955930    0.5061081005
   0.6832363139    0.0532159513    0.0051135336
   0.6064102512    0.2241433362    0.4986301304
   0.7997009153    0.0864992674    0.4988584791
   0.7661285779    0.2653388551    0.0185494271
   0.6118953492    0.4182022166    0.0115638860
   0.6114612681    0.6247206395    0.5199966094
   0.7351250362    0.4724902219    0.4666596054
   0.7373331517    0.6563833985   -0.0267446204
   0.6079992909    0.8263336451    0.0247207083
   0.7132960965    0.8618431306    0.5118742781
   0.9127385824    0.1119604881   -0.0073554372
   0.8841650403    0.3129712087    0.5141391125
  -0.0017908265    0.3472929466    0.0087380173
   0.8666029540    0.4960237980   -0.0036039631
   0.8553450207    0.6888296235    0.4968598425
   0.9886500269    0.5544400704    0.5293724057
   0.9832069684    0.7410643523    0.0074840270
   0.8411515108    0.8838684194   -0.0100771822
   0.9574170999    0.9172122929    0.5050705602
   0.5314925181    0.0443908270    0.0187170789
   0.4187012443    0.0859684344    0.4884945075
   0.4509543046    0.2734706316   -0.0053795151
   0.4780082793    0.4496463152    0.4869282582
   0.4823935363    0.6428482937    0.0135051759
   0.5039491322    0.8490192823    0.5039490632
   0.2994049284    0.1187594967    0.0188672862
   0.3307790570    0.3064556883    0.4788910218
   0.1916301791    0.1447646120    0.5064090786
   0.2142666607    0.3471926116    0.0002811427
   0.3525818531    0.5021878772   -0.0339901251
   0.3667276686    0.6876895699    0.4803074255
   0.2326017528    0.5426581292    0.4917857109
   0.2301404742    0.7306895628    0.0079598366
   0.3826024817    0.8801154126   -0.0305736492
   0.2619066568    0.9161625089    0.5034759218
   0.1141612761    0.3723621631    0.5009222181
   0.1126879371    0.5606504541   -0.0186481521
   0.1084260039    0.7655116255    0.5027694032
   0.1085328914    0.9771384514    0.0017649063
