frenkel step_70
1.01693838334
  16.5412228322    0.0000000000    0.0000000000
   0.0000000000   10.3612888280    0.0000000000
   0.0000000000    0.0000000000    4.0414000000
40
Direct
   0.0300765866    0.1469528728    0.4985255365
   0.6851818978    0.0484615653    0.0074902583
   0.6052146525    0.2222682523    0.5039164828
   0.8003693016    0.0882631215    0.4967828739
   0.7647573786    0.2674866101    0.0124776921
   0.6126105788    0.4198403911    0.0124357791
   0.6129264981    0.6205910320    0.5151993203
   0.7342949695    0.4727365897    0.4663356881
   0.7385464863    0.6541158291   -0.0252415794
   0.6092099077    0.8276155167    0.0226421108
   0.7146641082    0.8607760144    0.5155446021
   0.9145228590    0.1135678515   -0.0130739038
   0.8844338095    0.3150409673    0.5134783999
  -0.0005542500    0.3467513185    0.0046538722
   0.8667338606    0.4968772738    0.0073375754
   0.8541759686    0.6885209572    0.4929901021
   0.9884412499    0.5559566250    0.5372076199
   0.9822911136    0.7383580010    0.0019681786
   0.8391997112    0.8799489242   -0.0091685616
   0.9585618620    0.9191572755    0.4969138987
   0.5325350711    0.0435853018    0.0192342022
   0.4192515154    0.0842352558    0.4895435598
   0.4517550589    0.2748595052   -0.0022768719
   0.4780615601    0.4502029778    0.4923552887
   0.4827897020    0.6463080720    0.0200211487
   0.5039491322    0.8490192823    0.5039490632
   0.2991184177    0.1171612345    0.0188303821
   0.3333976711    0.3073144644    0.4813533989
   0.1907757130    0.1434044475    0.5062930188
   0.2150139486    0.3489625832   -0.0030403030
   0.3517766520    0.5001992519   -0.0339318681
   0.3664247533    0.6878645295    0.4821582700
   0.2340817233    0.5407071724    0.4953638314
   0.2299202024    0.7332613056    0.0060502158
   0.3823044286    0.8793304905   -0.0310683699
   0.2625140467    0.9141772015    0.5126519502
   0.1122271198    0.3712489588    0.5001031738
   0.1114483354    0.5580546047   -0.0215535595
   0.1084872407    0.7649789730    0.5065085161
   0.1085328914    0.9771384514    0.0017649063
