frenkel step_72
1.01693838334
  16.5412228322    0.0000000000    0.0000000000
   0.0000000000   10.3612888280    0.0000000000
   0.0000000000    0.0000000000    4.0414000000
40
Direct
   0.0297308682    0.1491508746    0.5018083322
   0.6853279551    0.0508327521    0.0124973248
   0.6062678406    0.2221636156    0.5082016320
   0.7995335276    0.0880409915    0.5025459461
   0.7656270171    0.2676118542    0.0166065695
   0.6119498834    0.4183288552    0.0143490595
   0.6137076662    0.6182929947    0.5190788556
   0.7335746860    0.4731682667    0.4715271601
   0.7374055900    0.6539303732   -0.0265630939
   0.6092099077    0.8276155167    0.0226421108
   0.7137409809    0.8589134891    0.5126015102
   0.9147178058    0.1121762703   -0.0159818818
   0.8851617435    0.3134319290    0.5105540375
   0.0008789287    0.3444914205    0.0097443301
   0.8674457253    0.4971207127    0.0060651368
   0.8539018552    0.6900469310    0.4869470136
   0.9889810249    0.5571487530    0.5383427740
   0.9811192777    0.7366181989   -0.0023713057
   0.8383655547    0.8793541280   -0.0067225208
   0.9585618620    0.9191572755    0.4969138987
   0.5325874454    0.0439354177    0.0198811544
   0.4192515154    0.0842352558    0.4895435598
   0.4504188228    0.2756884090   -0.0041364140
   0.4769315163    0.4519614109    0.4968595133
   0.4825045938    0.6446018194    0.0245747221
   0.5033690848    0.8500273629    0.5085421941
   0.2977261703    0.1188875248    0.0236765788
   0.3347422720    0.3077944078    0.4782225696
   0.1907757130    0.1434044475    0.5062930188
   0.2140838609    0.3505669616   -0.0034409241
   0.3518537404    0.5025688568   -0.0315195441
   0.3653681392    0.6855004180    0.4794180143
   0.2354567196    0.5407630831    0.4947287652
   0.2299202024    0.7332613056    0.0060502158
   0.3823044286    0.8793304905   -0.0310683699
   0.2616958825    0.9125498893    0.5080884484
   0.1122271198    0.3712489588    0.5001031738
   0.1121703031    0.5590772167   -0.0162648661
   0.1083527235    0.7636332852    0.5045107661
   0.1085328914    0.9771384514    0.0017649063
