frenkel step_56
1.01693838334
  16.5412228322    0.0000000000    0.0000000000
   0.0000000000   10.3612888280    0.0000000000
   0.0000000000    0.0000000000    4.0414000000
40
Direct
   0.0308939436    0.1468232071    0.5060407321
   0.6861447596    0.0492749663    0.0067877702
   0.6071012333    0.2265585209    0.4986594225
   0.8008645839    0.0879802940    0.4964453867
   0.7655465739    0.2705575399    0.0228474676
   0.6126634785    0.4196362555    0.0101241724
   0.6099538920    0.6206320049    0.5074524594
   0.7333201859    0.4728314202    0.4666150809
   0.7385340569    0.6512690445   -0.0201339707
   0.6113709703    0.8257585795    0.0192889443
   0.7131692350    0.8627841490    0.5074543755
   0.9142452457    0.1096960680   -0.0041247295
   0.8861016450    0.3123036038    0.5066496546
  -0.0002419619    0.3495166617    0.0090931306
   0.8652703025    0.4945924537   -0.0062387810
   0.8535694619    0.6860060099    0.5059724197
   0.9875482120    0.5514049620    0.5316688993
   0.9836853459    0.7420288780    0.0028504857
   0.8400541696    0.8806412898   -0.0028809297
   0.9590463705    0.9165093539    0.5058237874
   0.5314847026    0.0426143991    0.0203891106
   0.4181828832    0.0844612233    0.4886571956
   0.4514712662    0.2746765216   -0.0011839714
   0.4773847008    0.4521684948    0.4953828239
   0.4838485339    0.6422840802    0.0145557953
   0.5035731494    0.8475472919    0.5012530685
   0.3009087074    0.1175145260    0.0178402546
   0.3331376018    0.3052068599    0.4895380170
   0.1899227827    0.1430686292    0.4970493114
   0.2163328005    0.3480787931   -0.0109365890
   0.3537414794    0.4976673543   -0.0261974534
   0.3694295636    0.6834253196    0.4883110584
   0.2348380340    0.5421823778    0.5037381117
   0.2313514875    0.7327840061    0.0155547300
   0.3806780021    0.8846988982   -0.0279997577
   0.2635574014    0.9147392047    0.5075329935
   0.1123497797    0.3721876040    0.5054609758
   0.1109274440    0.5620899998   -0.0175768720
   0.1096160630    0.7663674290    0.4939515882
   0.1085698578    0.9781327932    0.0034286639
