frenkel step_13
1.01693838334
  16.5412228322    0.0000000000    0.0000000000
   0.0000000000   10.3612888280    0.0000000000
   0.0000000000    0.0000000000    4.0414000000
40
Direct
   0.0320766210    0.1475840849    0.5080197202
   0.6885680583    0.0443045686   -0.0055585740
   0.6071967929    0.2229038197    0.4913557990
   0.8008294975    0.0822628673    0.5137571951
   0.7635784530    0.2759114739    0.0149424876
   0.6116054046    0.4237138900   -0.0086334736
   0.6116018410    0.6242232013    0.5141995336
   0.7367961454    0.4588601622    0.4959852803
   0.7327396776    0.6515174816    0.0030334604
   0.6111479442    0.8213369237    0.0143742975
   0.7177544011    0.8554416442    0.5038656358
   0.9177663707    0.1100614998    0.0022969406
   0.8853119014    0.3161030137    0.5106483328
   0.0023966281    0.3410467394    0.0071203590
   0.8709078912    0.5006347558    0.0002101568
   0.8546045931    0.6932365922    0.4901727863
   0.9896984503    0.5484720955    0.5063637675
   0.9820293868    0.7426933500   -0.0090330907
   0.8370756522    0.8851781656   -0.0079474417
   0.9605551845    0.9219754132    0.5071459347
   0.5320606220    0.0420160272    0.0051872529
   0.4186256655    0.0757230007    0.4907124509
   0.4564967854    0.2703930435    0.0016363639
   0.4809079855    0.4593072984    0.5016904558
   0.4905017125    0.6445773190    0.0026422091
   0.5020924642    0.8438415897    0.4862159228
   0.3020367725    0.1066393296    0.0047142503
   0.3353275143    0.3071574443    0.4950949333
   0.1900109216    0.1441800880    0.4909213454
   0.2196356772    0.3364868176   -0.0019004535
   0.3552395067    0.4956575867   -0.0062675277
   0.3666478391    0.6875791886    0.4938396727
   0.2330127598    0.5414689077    0.4924321084
   0.2361836594    0.7347051582   -0.0080459359
   0.3826995423    0.8799283665   -0.0119243196
   0.2644811316    0.9102301588    0.5062164815
   0.1115536925    0.3722874859    0.5008972835
   0.1121856354    0.5637730298   -0.0004970629
   0.1105515550    0.7705051172    0.5006529080
   0.1079741730    0.9746826075   -0.0097752162
