frenkel step_5
1.01693838334
  16.5412228322    0.0000000000    0.0000000000
   0.0000000000   10.3612888280    0.0000000000
   0.0000000000    0.0000000000    4.0414000000
40
Direct
   0.0313332458    0.1477125584    0.5037219139
   0.6885680583    0.0443045686   -0.0055585740
   0.6051466300    0.2197580198    0.4991937702
   0.8004725066    0.0816152221    0.5052326921
   0.7627761362    0.2755316924    0.0075992366
   0.6112559829    0.4215589598   -0.0040948012
   0.6122730542    0.6235801348    0.5046847048
   0.7368851309    0.4578205835    0.4990406631
   0.7324386680    0.6518544046   -0.0020278148
   0.6096879580    0.8190097625    0.0082790459
   0.7171914160    0.8555040179    0.4974577186
   0.9186407895    0.1110794320    0.0046718045
   0.8837376694    0.3120766557    0.5119675247
   0.0022102543    0.3428719783    0.0025078086
   0.8701490831    0.5022948874    0.0011256516
   0.8526592062    0.6909848316    0.4969850818
   0.9882854653    0.5524291717    0.5080202848
   0.9815572840    0.7413889699   -0.0077360178
   0.8374921370    0.8832257521   -0.0076867993
   0.9593109208    0.9221024328    0.5117697292
   0.5320919372    0.0440838376    0.0118175317
   0.4194683537    0.0748364004    0.4956309658
   0.4574783467    0.2718312505   -0.0007603716
   0.4813234525    0.4549386192    0.5002130968
   0.4880279190    0.6443766763    0.0019693234
   0.5020292842    0.8467590864    0.4929933294
   0.3018685182    0.1085633941    0.0049183793
   0.3362374076    0.3076370912    0.5020515351
   0.1896265464    0.1441682503    0.4950063221
   0.2190042762    0.3383555450   -0.0026230994
   0.3539181926    0.4975008887   -0.0018248812
   0.3678611401    0.6861263052    0.4995161735
   0.2326077507    0.5427690776    0.4952936288
   0.2366518311    0.7354997716   -0.0092880793
   0.3818689987    0.8807323546   -0.0046642333
   0.2622301435    0.9141628518    0.5047971337
   0.1120355050    0.3739665867    0.4973829245
   0.1112863225    0.5656330779   -0.0017477936
   0.1116144179    0.7691864630    0.4998154166
   0.1055218457    0.9746806266   -0.0030540366
