frenkel step_8
1.01693838334
  16.5412228322    0.0000000000    0.0000000000
   0.0000000000   10.3612888280    0.0000000000
   0.0000000000    0.0000000000    4.0414000000
40
Direct
   0.0322151679    0.1458217006    0.5023896892
   0.6885680583    0.0443045686   -0.0055585740
   0.6061030920    0.2212422165    0.4936388549
   0.8001678810    0.0806912442    0.5107033795
   0.7627346401    0.2759570809    0.0135854521
   0.6112559829    0.4215589598   -0.0040948012
   0.6125468712    0.6232690323    0.5083800734
   0.7367588170    0.4590627386    0.4953738760
   0.7324386680    0.6518544046   -0.0020278148
   0.6111479442    0.8213369237    0.0143742975
   0.7167970182    0.8549244274    0.4982056103
   0.9183295242    0.1100016208    0.0047502788
   0.8846933144    0.3140621754    0.5092003790
   0.0013003788    0.3422324600    0.0050672164
   0.8709078912    0.5006347558    0.0002101568
   0.8539450695    0.6917794508    0.4960331152
   0.9896294582    0.5506704543    0.5107454030
   0.9824648819    0.7435873856   -0.0100056495
   0.8379441418    0.8852910172   -0.0031480143
   0.9604979769    0.9201894395    0.5058076413
   0.5326004190    0.0430546060    0.0058723452
   0.4186256655    0.0757230007    0.4907124509
   0.4574783467    0.2718312505   -0.0007603716
   0.4801706221    0.4570534919    0.4970529247
   0.4892015476    0.6461154111    0.0038622288
   0.5022297277    0.8452429466    0.4881031442
   0.3018685182    0.1085633941    0.0049183793
   0.3357836857    0.3086331574    0.4961696256
   0.1900109216    0.1441800880    0.4909213454
   0.2190042762    0.3383555450   -0.0026230994
   0.3539181926    0.4975008887   -0.0018248812
   0.3666478391    0.6875791886    0.4938396727
   0.2330127598    0.5414689077    0.4924321084
   0.2361811560    0.7357355013   -0.0053881308
   0.3832226529    0.8818353001   -0.0067717807
   0.2632179945    0.9122518484    0.5064547480
   0.1120355050    0.3739665867    0.4973829245
   0.1118828028    0.5651000771   -0.0046704481
   0.1105515550    0.7705051172    0.5006529080
   0.1068018465    0.9737114115   -0.0044346953
