frenkel step_78
1.01693838334
  16.5412228322    0.0000000000    0.0000000000
   0.0000000000   10.3612888280    0.0000000000
   0.0000000000    0.0000000000    4.0414000000
40
Direct
   0.0305205004    0.1478438749    0.5003587672
   0.6843543685    0.0451242797    0.0173378302
   0.6043522518    0.2226014408    0.5003275601
   0.7983908506    0.0842466094    0.4886994724
   0.7649276519    0.2649777865    0.0111967408
   0.6140602344    0.4212018786    0.0086781609
   0.6150698131    0.6179998429    0.5230624779
   0.7354203985    0.4654027918    0.4754417626
   0.7361386750    0.6539167332   -0.0376935535
   0.6092023126    0.8242569633    0.0219343472
   0.7142029152    0.8636513388    0.5275089440
   0.9150653458    0.1112894171   -0.0239859722
   0.8842235867    0.3130374073    0.5014836452
  -0.0016890705    0.3449400309   -0.0006013591
   0.8655172432    0.5009084572   -0.0029800381
   0.8529922167    0.6864570892    0.4864671151
   0.9870799392    0.5538206779    0.5317986507
   0.9813280241    0.7400221924    0.0156692803
   0.8405748839    0.8798785141   -0.0092507822
   0.9569010943    0.9146931154    0.4882524780
   0.5313320073    0.0421611253    0.0200148781
   0.4193164567    0.0852591418    0.5006541645
   0.4519280404    0.2705398897   -0.0096827363
   0.4768352960    0.4494688099    0.4981661550
   0.4833550878    0.6462139058    0.0217384868
   0.5055199136    0.8476788763    0.5101655799
   0.3010784739    0.1171062810    0.0167776366
   0.3338952782    0.3065899834    0.4795779634
   0.1909218110    0.1468015309    0.5085936564
   0.2155251575    0.3467478476   -0.0002412937
   0.3502107766    0.4990463128   -0.0350901808
   0.3667457848    0.6871244530    0.4752246197
   0.2363621465    0.5394574387    0.4895276770
   0.2299669986    0.7347360045    0.0026112299
   0.3844818932    0.8784664170   -0.0291056168
   0.2619444182    0.9147261094    0.5134329419
   0.1102592618    0.3707471269    0.5064186382
   0.1140178649    0.5621029946   -0.0257064496
   0.1090573621    0.7612667833    0.5175993894
   0.1080878016    0.9767112383    0.0000962219
