frenkel step_55
1.01693838334
  16.5412228322    0.0000000000    0.0000000000
   0.0000000000   10.3612888280    0.0000000000
   0.0000000000    0.0000000000    4.0414000000
40
Direct
   0.0301117660    0.1491957997    0.5064958337
   0.6868587442    0.0478835727    0.0072366185
   0.6074391321    0.2248620917    0.4964185524
   0.8008645839    0.0879802940    0.4964453867
   0.7651288266    0.2697985249    0.0181728761
   0.6127058818    0.4203772315    0.0084521301
   0.6111398828    0.6184206629    0.5052423906
   0.7344475747    0.4708659299    0.4727377516
   0.7385340569    0.6512690445   -0.0201339707
   0.6127625920    0.8236122868    0.0193270402
   0.7134744749    0.8627582714    0.5028457155
   0.9153117768    0.1119521842    0.0005070535
   0.8869917040    0.3101240349    0.5079271760
  -0.0002419619    0.3495166617    0.0090931306
   0.8638980959    0.4962764946   -0.0098780357
   0.8531479141    0.6864633465    0.5067331203
   0.9883517324    0.5529724003    0.5257762100
   0.9836853459    0.7420288780    0.0028504857
   0.8398938026    0.8791343943   -0.0022202039
   0.9605411612    0.9178664139    0.5114214232
   0.5325129033    0.0415271315    0.0226202173
   0.4182139225    0.0837250585    0.4911868018
   0.4528890791    0.2733408076    0.0010852429
   0.4770245897    0.4541038430    0.4997329311
   0.4838485339    0.6422840802    0.0145557953
   0.5035731494    0.8475472919    0.5012530685
   0.3012063196    0.1163106248    0.0131811937
   0.3331376018    0.3052068599    0.4895380170
   0.1899227827    0.1430686292    0.4970493114
   0.2159537391    0.3474261745   -0.0110847421
   0.3551363908    0.4989918901   -0.0296474400
   0.3696694920    0.6813518027    0.4859976156
   0.2354990296    0.5417552436    0.5045635466
   0.2327811448    0.7338172348    0.0128431694
   0.3808151649    0.8825617656   -0.0273882678
   0.2623747714    0.9150874325    0.5043143134
   0.1135020705    0.3716294450    0.5039801938
   0.1094736446    0.5614220214   -0.0114146513
   0.1089731547    0.7687293851    0.4942204987
   0.1097816390    0.9768556094   -0.0013144747
