frenkel step_82
1.01693838334
  16.5412228322    0.0000000000    0.0000000000
   0.0000000000   10.3612888280    0.0000000000
   0.0000000000    0.0000000000    4.0414000000
40
Direct
   0.0299654820    0.1503942574    0.4925439874
   0.6848139439    0.0470262244    0.0146013654
   0.6042140172    0.2219737183    0.4951971878
   0.7998235809    0.0851891971    0.4943850653
   0.7637222302    0.2649034869    0.0100225980
   0.6151789046    0.4192679175    0.0138658896
   0.6156368448    0.6218945003    0.5237561403
   0.7338954653    0.4642300657    0.4754138834
   0.7366637901    0.6544923721   -0.0419151703
   0.6077068163    0.8262403200    0.0222089024
   0.7128740396    0.8617596003    0.5193123729
   0.9141278763    0.1121162811   -0.0122495738
   0.8840337131    0.3166724697    0.5105111086
  -0.0000381533    0.3447667667    0.0035471964
   0.8649478370    0.4991556607    0.0008816744
   0.8541140805    0.6856505740    0.4873772407
   0.9868408244    0.5558268808    0.5338563497
   0.9829659160    0.7377242002    0.0058034128
   0.8417487478    0.8784502058   -0.0107482152
   0.9564609458    0.9149691395    0.4897871523
   0.5317335406    0.0460325591    0.0239295883
   0.4187471207    0.0864631883    0.4907439081
   0.4521087712    0.2712074720   -0.0057503255
   0.4781555508    0.4514953481    0.4911065866
   0.4820112393    0.6450988103    0.0313802865
   0.5067711658    0.8468820304    0.5087624347
   0.2996707340    0.1185315654    0.0222575162
   0.3330644089    0.3067190507    0.4844672026
   0.1902344512    0.1451589766    0.5145378292
   0.2162796562    0.3477484699    0.0006845855
   0.3502107766    0.4990463128   -0.0350901808
   0.3658447945    0.6879495830    0.4812281077
   0.2350654897    0.5419151938    0.4873139111
   0.2281485082    0.7356177628    0.0059072271
   0.3843390340    0.8756827930   -0.0345258673
   0.2618755706    0.9146228828    0.5141137108
   0.1110730891    0.3720945771    0.5024558355
   0.1125643802    0.5620883408   -0.0227564498
   0.1104754495    0.7616126996    0.5127235427
   0.1060958796    0.9808304993   -0.0016203608
