frenkel step_31
1.01693838334
  16.5412228322    0.0000000000    0.0000000000
   0.0000000000   10.3612888280    0.0000000000
   0.0000000000    0.0000000000    4.0414000000
40
Direct
   0.0301399370    0.1483626874    0.5063803983
   0.6876673182    0.0452224651    0.0005981560
   0.6066627390    0.2227014480    0.4929854176
   0.7991799576    0.0850619736    0.5104381878
   0.7625799061    0.2788272224    0.0195007810
   0.6125621803    0.4263474091   -0.0004931593
   0.6121604165    0.6220588212    0.5116225828
   0.7347704753    0.4613101103    0.4877431941
   0.7340906381    0.6513919078   -0.0075931872
   0.6125960863    0.8236112551    0.0043888785
   0.7157459972    0.8562035952    0.5087241899
   0.9180408536    0.1105683224    0.0015734550
   0.8846603310    0.3126135085    0.4983720141
   0.0011458743    0.3434907093    0.0088487262
   0.8676485139    0.4998338813    0.0009964649
   0.8552357691    0.6850610800    0.5028046362
   0.9873554684    0.5521643381    0.5088385511
   0.9830625856    0.7398523419   -0.0045016206
   0.8406121244    0.8796133026   -0.0131266705
   0.9597556248    0.9180830511    0.5080009308
   0.5313101021    0.0414600062    0.0150477028
   0.4159256132    0.0806827161    0.4828135192
   0.4566774483    0.2766420021    0.0016266812
   0.4801891200    0.4577867046    0.5074116757
   0.4858928064    0.6438533128    0.0127457609
   0.5056840127    0.8416964478    0.4918254395
   0.3006952963    0.1124376663    0.0174691914
   0.3338885909    0.3064152036    0.4969862016
   0.1918651406    0.1481086407    0.5046227964
   0.2173213771    0.3437610699   -0.0021608807
   0.3533902859    0.4969831415   -0.0074080631
   0.3680588366    0.6801956764    0.4917818672
   0.2359488850    0.5454640383    0.4972548486
   0.2351216015    0.7352895567   -0.0008880754
   0.3809457754    0.8828473784   -0.0173466651
   0.2598576638    0.9127136301    0.4995041379
   0.1119274848    0.3698808372    0.5055359249
   0.1134727482    0.5596446303   -0.0035524013
   0.1067158847    0.7716749398    0.5076057637
   0.1083527766    0.9734444022   -0.0097381744
