frenkel step_6
1.01693838334
  16.5412228322    0.0000000000    0.0000000000
   0.0000000000   10.3612888280    0.0000000000
   0.0000000000    0.0000000000    4.0414000000
40
Direct
   0.0325419434    0.1455742011    0.5096664586
   0.6896972276    0.0442654433   -0.0006226472
   0.6062527921    0.2194748575    0.4990256409
   0.8004725066    0.0816152221    0.5052326921
   0.7626200691    0.2758590938    0.0090983365
   0.6112559829    0.4215589598   -0.0040948012
   0.6132258235    0.6222176733    0.5105467662
   0.7375729489    0.4568067784    0.5000020802
   0.7334266893    0.6529429446   -0.0077367616
   0.6091334118    0.8187534091    0.0074510834
   0.7161043862    0.8541883633    0.4921235766
   0.9194663332    0.1097131457    0.0096595519
   0.8827170615    0.3110673261    0.5080059679
   0.0018110017    0.3421111770    0.0056919050
   0.8701490831    0.5022948874    0.0011256516
   0.8540593364    0.6892852425    0.4939776666
   0.9882799626    0.5541991665    0.5096006129
   0.9805021470    0.7405698973   -0.0038527083
   0.8369917923    0.8816592099   -0.0124388844
   0.9601548108    0.9235288498    0.5098462678
   0.5311413361    0.0442414849    0.0096681482
   0.4190013558    0.0747401811    0.4959053245
   0.4562585181    0.2735852343    0.0000624386
   0.4813234525    0.4549386192    0.5002130968
   0.4886497293    0.6438711081   -0.0003709550
   0.5031659198    0.8487788470    0.4882934752
   0.3014096402    0.1071709746   -0.0005329100
   0.3361919625    0.3095729613    0.5027276010
   0.1896265464    0.1441682503    0.4950063221
   0.2196651294    0.3375640293    0.0001948755
   0.3532617624    0.4967270035   -0.0005850525
   0.3664795136    0.6853207685    0.4945640894
   0.2326077507    0.5427690776    0.4952936288
   0.2365780431    0.7370440893   -0.0117848953
   0.3826877797    0.8818706971   -0.0090994973
   0.2616696448    0.9149220186    0.5050114911
   0.1116043001    0.3759690923    0.5002500520
   0.1109883638    0.5652310611    0.0020978863
   0.1116144179    0.7691864630    0.4998154166
   0.1055218457    0.9746806266   -0.0030540366
