frenkel step_37
1.01693838334
  16.5412228322    0.0000000000    0.0000000000
   0.0000000000   10.3612888280    0.0000000000
   0.0000000000    0.0000000000    4.0414000000
40
Direct
   0.0299483185    0.1457019511    0.5114145756
   0.6894763685    0.0475910874   -0.0043504372
   0.6054500353    0.2239678507    0.5101351880
   0.8023121013    0.0823777211    0.5037294563
   0.7655918242    0.2729262273    0.0097790279
   0.6143863375    0.4213326264   -0.0090740633
   0.6110472351    0.6236028336    0.5094086579
   0.7319342140    0.4680424002    0.4781909967
   0.7381014628    0.6497655008   -0.0048902077
   0.6127784714    0.8249623365    0.0070087613
   0.7141379623    0.8556252066    0.5023980494
   0.9175716177    0.1120673928    0.0117047547
   0.8867114776    0.3135444335    0.5028380832
  -0.0018211065    0.3484983600    0.0065722261
   0.8647253847    0.4983450577   -0.0118698297
   0.8542408076    0.6861807146    0.5065377642
   0.9870889840    0.5504795537    0.5145545385
   0.9804427032    0.7400271341   -0.0031290875
   0.8382827023    0.8797324673   -0.0018049771
   0.9590315345    0.9166734390    0.5129702833
   0.5312716759    0.0413328750    0.0101901968
   0.4158793906    0.0837027300    0.4858234625
   0.4545192599    0.2783146194    0.0038859280
   0.4804051254    0.4549281847    0.5065414706
   0.4843454226    0.6445858950    0.0120049204
   0.5051674078    0.8451723595    0.4914905418
   0.3023246455    0.1094949200    0.0168684419
   0.3330464202    0.3085406862    0.5014806390
   0.1916370588    0.1463859725    0.5021431655
   0.2164583501    0.3448822353   -0.0197474389
   0.3557978998    0.4973750847   -0.0046003021
   0.3683330631    0.6809972761    0.4866207598
   0.2341784707    0.5443576398    0.4961666521
   0.2341005637    0.7361561805    0.0028594437
   0.3793096840    0.8847119084   -0.0304524601
   0.2593686191    0.9138540082    0.5053486502
   0.1147666505    0.3746035495    0.5053541391
   0.1116931800    0.5587151724   -0.0067746851
   0.1077189346    0.7708705226    0.5046675376
   0.1078196042    0.9746200458   -0.0065873978
