frenkel step_86
1.01693838334
  16.5412228322    0.0000000000    0.0000000000
   0.0000000000   10.3612888280    0.0000000000
   0.0000000000    0.0000000000    4.0414000000
40
Direct
   0.0286853875    0.1487418685    0.4934349623
   0.6835210790    0.0488404370    0.0136099573
   0.6039341751    0.2220597587    0.5041312672
   0.7994856644    0.0842082561    0.4981056418
   0.7660028807    0.2684430622    0.0128964540
   0.6150737322    0.4213577814    0.0116687451
   0.6170903065    0.6197561100    0.5224546774
   0.7353670683    0.4661725873    0.4725884961
   0.7347349099    0.6569245856   -0.0407397184
   0.6077792823    0.8226796683    0.0235369738
   0.7153744671    0.8620252380    0.5168544075
   0.9152738990    0.1090418125   -0.0163784654
   0.8854519801    0.3143278781    0.5050727262
  -0.0012681204    0.3437561538    0.0051905470
   0.8658963648    0.5010974803    0.0014552585
   0.8527321030    0.6885780077    0.4898051444
   0.9884982197    0.5533011422    0.5340599108
   0.9812337703    0.7385858983    0.0086429957
   0.8405748839    0.8798785141   -0.0092507822
   0.9559609015    0.9151999071    0.4896674115
   0.5305750206    0.0437971318    0.0187719943
   0.4207103519    0.0835766534    0.4998363424
   0.4527686987    0.2688754981   -0.0035784420
   0.4773623349    0.4518095279    0.4952039697
   0.4846840882    0.6470350645    0.0227431541
   0.5062557171    0.8493792209    0.5135185150
   0.2996886706    0.1162694218    0.0202454259
   0.3344639296    0.3045038328    0.4833537465
   0.1924246121    0.1479335274    0.5065466884
   0.2170603876    0.3477773767    0.0032664397
   0.3509265149    0.4982507216   -0.0306350716
   0.3658751274    0.6880201671    0.4778242857
   0.2353031787    0.5377939078    0.4830663796
   0.2283756645    0.7344798720   -0.0039444581
   0.3850090710    0.8769611012   -0.0285736688
   0.2620202815    0.9155874083    0.5108201504
   0.1110730891    0.3720945771    0.5024558355
   0.1131967160    0.5624685287   -0.0286282165
   0.1090573621    0.7612667833    0.5175993894
   0.1077251509    0.9781056957   -0.0037538206
