frenkel step_28
1.01693838334
  16.5412228322    0.0000000000    0.0000000000
   0.0000000000   10.3612888280    0.0000000000
   0.0000000000    0.0000000000    4.0414000000
40
Direct
   0.0302168629    0.1483634370    0.5049953616
   0.6861372538    0.0458033786   -0.0084237736
   0.6056862022    0.2242010071    0.4899834275
   0.7987010462    0.0840315347    0.5109246430
   0.7632150551    0.2760219930    0.0093573164
   0.6144906018    0.4229773778   -0.0055160405
   0.6109308382    0.6230449362    0.5097680230
   0.7347704753    0.4613101103    0.4877431941
   0.7344208164    0.6502993409   -0.0035699465
   0.6134232661    0.8252803942    0.0088901307
   0.7178653444    0.8543501140    0.4982264238
   0.9172155464    0.1120693896    0.0040096547
   0.8832324258    0.3116444217    0.4929741039
   0.0011448202    0.3413824812    0.0041420976
   0.8659835771    0.5011133942    0.0013421830
   0.8540428881    0.6869113000    0.4962421821
   0.9868175832    0.5545055269    0.5132597202
   0.9832509825    0.7381205526   -0.0091536112
   0.8401096930    0.8796916261   -0.0106414894
   0.9593113756    0.9207001952    0.5086142130
   0.5305485088    0.0406472203    0.0166779473
   0.4163387823    0.0797443995    0.4840616977
   0.4554469231    0.2795170915    0.0054368027
   0.4790800223    0.4577749697    0.5018743351
   0.4848547558    0.6456049224    0.0050959941
   0.5050412809    0.8394645309    0.4886219456
   0.3008796347    0.1092747875    0.0109320559
   0.3356085363    0.3072840067    0.4974460229
   0.1923807189    0.1479341090    0.5018377465
   0.2193656093    0.3427826712   -0.0104064311
   0.3538217447    0.4961594305   -0.0085585793
   0.3670033238    0.6800302710    0.4879235785
   0.2354022122    0.5450491129    0.4952889236
   0.2356350673    0.7357742877   -0.0015624385
   0.3825393735    0.8804033029   -0.0160128895
   0.2601362799    0.9115379532    0.5042873495
   0.1111847849    0.3708947630    0.5033919038
   0.1134894625    0.5608199547    0.0051946652
   0.1086043699    0.7724422504    0.5097219712
   0.1094564210    0.9733039899   -0.0051886203
