frenkel step_44
1.01693838334
  16.5412228322    0.0000000000    0.0000000000
   0.0000000000   10.3612888280    0.0000000000
   0.0000000000    0.0000000000    4.0414000000
40
Direct
   0.0322542629    0.1475503431    0.5098867230
   0.6903227010    0.0482460143    0.0045585878
   0.6048354958    0.2273944098    0.5071617346
   0.8017565179    0.0837011915    0.5014559485
   0.7645764495    0.2724376407    0.0149130929
   0.6156486645    0.4190134071   -0.0078579749
   0.6110269307    0.6216651951    0.5121221888
   0.7321401000    0.4683414162    0.4736309633
   0.7367774225    0.6526215675   -0.0147806828
   0.6138584147    0.8272269862    0.0117871143
   0.7168555688    0.8583143980    0.5055330638
   0.9182545162    0.1107489251    0.0052946258
   0.8882408156    0.3096507562    0.5073636053
  -0.0021828655    0.3445785810    0.0136159961
   0.8646798616    0.4985307322   -0.0113234150
   0.8542408076    0.6861807146    0.5065377642
   0.9880384375    0.5516081425    0.5098484932
   0.9812550592    0.7403457751   -0.0054660422
   0.8393644266    0.8831739394    0.0039403520
   0.9605712064    0.9208051483    0.5057318990
   0.5321547896    0.0400236027    0.0073950321
   0.4191637036    0.0791282094    0.4903411353
   0.4548996170    0.2769878302    0.0096659809
   0.4788176553    0.4569211242    0.5124356256
   0.4825463657    0.6424550845    0.0154822622
   0.5054762413    0.8431709036    0.5020420931
   0.3034790156    0.1084294621    0.0058577583
   0.3336709800    0.3082888309    0.4899541174
   0.1895568998    0.1431869697    0.4943625405
   0.2168015117    0.3464528466   -0.0137535497
   0.3568461308    0.5003898079   -0.0159014494
   0.3710389825    0.6835302137    0.4945940332
   0.2365302470    0.5456553441    0.5003762071
   0.2350829588    0.7377414968    0.0064281305
   0.3795202211    0.8843669276   -0.0289532357
   0.2606165760    0.9174800951    0.4984849667
   0.1132340192    0.3747918762    0.4920095844
   0.1099390364    0.5576113576    0.0049572849
   0.1085481909    0.7716289861    0.4998700957
   0.1070805857    0.9721135064    0.0068501464
