frenkel step_25
1.01693838334
  16.5412228322    0.0000000000    0.0000000000
   0.0000000000   10.3612888280    0.0000000000
   0.0000000000    0.0000000000    4.0414000000
40
Direct
   0.0304618316    0.1465076196    0.5099788512
   0.6856060295    0.0432601643   -0.0041790314
   0.6077161780    0.2228886593    0.4960906184
   0.8000733563    0.0829012966    0.5135931555
   0.7639690220    0.2772366824    0.0036447639
   0.6137075090    0.4261041924   -0.0034506060
   0.6112896884    0.6233475064    0.5070464651
   0.7341014560    0.4604654861    0.4857709518
   0.7337505589    0.6519190788   -0.0086467121
   0.6106569195    0.8231509442    0.0096524982
   0.7186999962    0.8570754792    0.4985178207
   0.9188606288    0.1098440853   -0.0007606707
   0.8866989972    0.3128523095    0.4964753040
   0.0004067804    0.3410291150    0.0044005208
   0.8696240605    0.4990562691    0.0008681569
   0.8530578981    0.6878058023    0.5012107111
   0.9893770541    0.5516480805    0.5131217706
   0.9836760231    0.7412206189   -0.0186732360
   0.8415225381    0.8789158257   -0.0042674687
   0.9612318955    0.9239823196    0.5048940372
   0.5321378395    0.0424601786    0.0063061746
   0.4162205566    0.0786187670    0.4778121321
   0.4569146118    0.2747547765    0.0017902373
   0.4815685809    0.4596609689    0.5072851756
   0.4880683814    0.6458142570    0.0129564161
   0.5028249254    0.8423952365    0.4916879121
   0.2992397852    0.1086961811    0.0105958222
   0.3367817466    0.3059326587    0.4919772220
   0.1891613257    0.1488261950    0.4995864460
   0.2205113452    0.3383754017   -0.0063341980
   0.3553270005    0.4989505047   -0.0015533269
   0.3656069565    0.6804513993    0.4827389748
   0.2330779711    0.5471396001    0.4891425445
   0.2354396997    0.7328319932    0.0041914361
   0.3840821842    0.8834666372   -0.0191393853
   0.2588873051    0.9100538088    0.5086477739
   0.1120854465    0.3728238047    0.5052838503
   0.1125309274    0.5639899252   -0.0001748131
   0.1084971841    0.7729222795    0.5095216029
   0.1097763663    0.9727856829   -0.0016726774
