frenkel step_61
1.01693838334
  16.5412228322    0.0000000000    0.0000000000
   0.0000000000   10.3612888280    0.0000000000
   0.0000000000    0.0000000000    4.0414000000
40
Direct
   0.0313429170    0.1429846202    0.5048318555
   0.6857795511    0.0500355793    0.0005206474
   0.6064102512    0.2241433362    0.4986301304
   0.7982068790    0.0882150359    0.5001975633
   0.7661741495    0.2659662100    0.0139393261
   0.6124099634    0.4202819170    0.0086196239
   0.6117585431    0.6235284540    0.5178449622
   0.7344184575    0.4717049163    0.4680348706
   0.7373910345    0.6545629497   -0.0303382040
   0.6096722437    0.8270405977    0.0238576217
   0.7130963586    0.8613832740    0.5171368187
   0.9141730045    0.1113165579   -0.0080999068
   0.8850221359    0.3137412634    0.5099449232
  -0.0004946823    0.3474264829    0.0053634591
   0.8657052638    0.4956370317    0.0012086220
   0.8531703162    0.6878709908    0.4943755129
   0.9886163925    0.5568740213    0.5368729531
   0.9816618047    0.7402069878    0.0018917198
   0.8417190864    0.8799983787   -0.0055453645
   0.9587947465    0.9170335833    0.5014941527
   0.5305553246    0.0436314632    0.0216795802
   0.4211235927    0.0863835295    0.4903851300
   0.4510856595    0.2747087153    0.0000633465
   0.4772494626    0.4510505616    0.4924415967
   0.4834717049    0.6450478487    0.0148185023
   0.5048934472    0.8471699622    0.5076845274
   0.2995161142    0.1192575807    0.0249221900
   0.3328214320    0.3051154193    0.4887091152
   0.1930374767    0.1463595828    0.5064196958
   0.2140687414    0.3488374819   -0.0032206121
   0.3522917586    0.5014207637   -0.0305741741
   0.3664083207    0.6862003216    0.4777594237
   0.2327137185    0.5399283295    0.4909246122
   0.2309377379    0.7313436213    0.0115312328
   0.3811581292    0.8809640543   -0.0315652847
   0.2634288950    0.9148783138    0.5101365937
   0.1129863398    0.3703544367    0.5056001825
   0.1133215414    0.5604196295   -0.0254859376
   0.1085402021    0.7657618264    0.5054424968
   0.1085328914    0.9771384514    0.0017649063
