frenkel step_45
1.01693838334
  16.5412228322    0.0000000000    0.0000000000
   0.0000000000   10.3612888280    0.0000000000
   0.0000000000    0.0000000000    4.0414000000
40
Direct
   0.0306109653    0.1454039522    0.5170832908
   0.6891955617    0.0474801714    0.0004794607
   0.6045121329    0.2255221165    0.5020614534
   0.8012227733    0.0851670199    0.4972716156
   0.7645660804    0.2747000627    0.0138658535
   0.6142915266    0.4201347840   -0.0086740155
   0.6108061886    0.6209769285    0.5157375306
   0.7322555809    0.4676966028    0.4780986150
   0.7371688270    0.6530378273   -0.0095392095
   0.6146445596    0.8270271326    0.0147454481
   0.7178385140    0.8603880954    0.5058195206
   0.9170277466    0.1118333349    0.0076633850
   0.8889973203    0.3112978633    0.5047803114
  -0.0026291327    0.3449210713    0.0140287186
   0.8658464234    0.5005665938   -0.0107175168
   0.8539165730    0.6845608757    0.5017835995
   0.9892415184    0.5519813314    0.5160635624
   0.9816302541    0.7397391973   -0.0025318527
   0.8411985997    0.8823613492   -0.0043537558
   0.9609680499    0.9192019476    0.5081528929
   0.5316733653    0.0440057253    0.0160403998
   0.4166382149    0.0776041687    0.4911549629
   0.4558840350    0.2794648479    0.0047120997
   0.4782679696    0.4575960144    0.5153658656
   0.4829281748    0.6439286444    0.0215439905
   0.5048967477    0.8455756020    0.4981695891
   0.3033385438    0.1084701278    0.0111178627
   0.3350074232    0.3088740126    0.4931553081
   0.1908915580    0.1448734149    0.4994917878
   0.2168015117    0.3464528466   -0.0137535497
   0.3579871851    0.4962926133   -0.0038701514
   0.3701430888    0.6828099576    0.4957179050
   0.2357479282    0.5442117518    0.4990258566
   0.2327236910    0.7366318705    0.0102357303
   0.3787144114    0.8835277697   -0.0306289981
   0.2617709690    0.9168802712    0.4988141089
   0.1122957367    0.3765536152    0.4914469090
   0.1099751101    0.5587843397    0.0048591185
   0.1094888577    0.7715837550    0.5013543608
   0.1061854806    0.9748185966    0.0022309429
