frenkel step_60
1.01693838334
  16.5412228322    0.0000000000    0.0000000000
   0.0000000000   10.3612888280    0.0000000000
   0.0000000000    0.0000000000    4.0414000000
40
Direct
   0.0313319896    0.1448093804    0.5029643986
   0.6843615050    0.0508113533    0.0064559526
   0.6064102512    0.2241433362    0.4986301304
   0.7997009153    0.0864992674    0.4988584791
   0.7647573786    0.2674866101    0.0124776921
   0.6118953492    0.4182022166    0.0115638860
   0.6116535505    0.6229720434    0.5141968083
   0.7343397288    0.4715543110    0.4629614847
   0.7385464863    0.6541158291   -0.0252415794
   0.6090141020    0.8280434931    0.0219059888
   0.7132960965    0.8618431306    0.5118742781
   0.9141730045    0.1113165579   -0.0080999068
   0.8844845041    0.3147811258    0.5081429390
  -0.0016616542    0.3481265994    0.0090635228
   0.8657052638    0.4956370317    0.0012086220
   0.8542156816    0.6882520098    0.4946550061
   0.9879181186    0.5551403279    0.5320646750
   0.9831136781    0.7399425896    0.0018010162
   0.8406744528    0.8821792074   -0.0088909362
   0.9587947465    0.9170335833    0.5014941527
   0.5313598676    0.0423531055    0.0189316265
   0.4196700760    0.0849805520    0.4916485603
   0.4516616461    0.2753951176   -0.0058068086
   0.4768419983    0.4516792495    0.4872260095
   0.4834717049    0.6450478487    0.0148185023
   0.5039491322    0.8490192823    0.5039490632
   0.2994049284    0.1187594967    0.0188672862
   0.3320883294    0.3054270914    0.4842153493
   0.1916264490    0.1445129914    0.5055848207
   0.2150139486    0.3489625832   -0.0030403030
   0.3517766520    0.5001992519   -0.0339318681
   0.3667276686    0.6876895699    0.4803074255
   0.2340817233    0.5407071724    0.4953638314
   0.2309377379    0.7313436213    0.0115312328
   0.3820947602    0.8813107937   -0.0290524429
   0.2623747733    0.9153290469    0.5076620324
   0.1129863398    0.3703544367    0.5056001825
   0.1119926055    0.5592363021   -0.0238313061
   0.1084872407    0.7649789730    0.5065085161
   0.1085328914    0.9771384514    0.0017649063
