frenkel step_27
1.01693838334
  16.5412228322    0.0000000000    0.0000000000
   0.0000000000   10.3612888280    0.0000000000
   0.0000000000    0.0000000000    4.0414000000
40
Direct
   0.0313742203    0.1477441849    0.5060525866
   0.6871875305    0.0456074405   -0.0039965516
   0.6056862022    0.2242010071    0.4899834275
   0.7992777222    0.0833951735    0.5155038695
   0.7624670935    0.2775280323    0.0136598113
   0.6139600104    0.4244829435   -0.0025709367
   0.6109308382    0.6230449362    0.5097680230
   0.7347704753    0.4613101103    0.4877431941
   0.7329294575    0.6513881616   -0.0091651440
   0.6125960863    0.8236112551    0.0043888785
   0.7170677359    0.8566014887    0.5039345600
   0.9184528468    0.1129149125    0.0019164057
   0.8846603310    0.3126135085    0.4983720141
   0.0011448202    0.3413824812    0.0041420976
   0.8670018447    0.4994596966    0.0040601395
   0.8554693606    0.6872676636    0.5013765090
   0.9873554684    0.5521643381    0.5088385511
   0.9830625856    0.7398523419   -0.0045016206
   0.8406121244    0.8796133026   -0.0131266705
   0.9596183912    0.9201017611    0.5086583804
   0.5313101021    0.0414600062    0.0150477028
   0.4163387823    0.0797443995    0.4840616977
   0.4569118815    0.2777735808    0.0055312558
   0.4790800223    0.4577749697    0.5018743351
   0.4848569613    0.6440049360    0.0066128901
   0.5049907537    0.8413235534    0.4934745197
   0.3005684966    0.1111108736    0.0116808868
   0.3352714237    0.3067407147    0.4980689890
   0.1918651406    0.1481086407    0.5046227964
   0.2187405475    0.3425645459   -0.0081398895
   0.3539508491    0.4979320770   -0.0028329772
   0.3677999526    0.6806288335    0.4887752001
   0.2347352647    0.5469622572    0.4919281478
   0.2358231270    0.7340877926   -0.0027600683
   0.3814846581    0.8814453649   -0.0158799162
   0.2601362799    0.9115379532    0.5042873495
   0.1116455025    0.3717134200    0.5055093231
   0.1131843678    0.5617079227    0.0018698783
   0.1072764619    0.7722497521    0.5137439029
   0.1094564210    0.9733039899   -0.0051886203
