frenkel step_93
1.01693838334
  16.5412228322    0.0000000000    0.0000000000
   0.0000000000   10.3612888280    0.0000000000
   0.0000000000    0.0000000000    4.0414000000
40
Direct
   0.0269700153    0.1462026361    0.4993469694
   0.6840265381    0.0462794842    0.0093644416
   0.6034177814    0.2216931293    0.5085581028
   0.8035342825    0.0813012633    0.4916376167
   0.7659310958    0.2698928464    0.0172430380
   0.6134756229    0.4198797038    0.0139350149
   0.6178605886    0.6192619929    0.5134642180
   0.7344573454    0.4682575938    0.4799021673
   0.7342758451    0.6522748588   -0.0316273258
   0.6081149545    0.8208138678    0.0190381502
   0.7151099698    0.8661713859    0.5174626957
   0.9140989532    0.1113405999   -0.0082421761
   0.8836626496    0.3112470902    0.5003310677
  -0.0018130546    0.3417967977    0.0189147929
   0.8646440421    0.4999334873   -0.0013448691
   0.8540055928    0.6901932535    0.4853331435
   0.9873748819    0.5538592760    0.5335999838
   0.9821874925    0.7353033264   -0.0021976950
   0.8381918499    0.8738170329   -0.0015983267
   0.9559188585    0.9110250257    0.4836328001
   0.5294604585    0.0396736705    0.0295006104
   0.4234844160    0.0821155428    0.4928847369
   0.4536881425    0.2730612011    0.0025165148
   0.4771884264    0.4549376683    0.4921966507
   0.4803979060    0.6455647611    0.0312536848
   0.5052998370    0.8478431829    0.5184345531
   0.3016467520    0.1184666576    0.0194909350
   0.3338241399    0.3088213186    0.4861617066
   0.1889542458    0.1490507833    0.5076918570
   0.2161854122    0.3482726301    0.0055335405
   0.3489174272    0.4986258509   -0.0351465120
   0.3673030214    0.6885534342    0.4822137250
   0.2372895279    0.5453858636    0.4750002968
   0.2318698700    0.7273808077    0.0117889303
   0.3834059315    0.8770465961   -0.0352463568
   0.2629767387    0.9097311520    0.5204145789
   0.1123966494    0.3744848746    0.5068782839
   0.1168158513    0.5617705532   -0.0131588071
   0.1072370450    0.7616220313    0.5085746617
   0.1091392474    0.9736394944    0.0027277669
