frenkel step_54
1.01693838334
  16.5412228322    0.0000000000    0.0000000000
   0.0000000000   10.3612888280    0.0000000000
   0.0000000000    0.0000000000    4.0414000000
40
Direct
   0.0287325336    0.1502324951    0.5121005684
   0.6856503853    0.0509163478    0.0041311143
   0.6077122668    0.2250756064    0.4920247331
   0.7999509768    0.0870407543    0.4955592862
   0.7655341147    0.2720805206    0.0131548172
   0.6117634889    0.4239392882    0.0053732435
   0.6109663927    0.6207824067    0.5016321307
   0.7357949897    0.4688895572    0.4788943468
   0.7391958852    0.6488941802   -0.0197252549
   0.6120304672    0.8255004409    0.0196738908
   0.7161343254    0.8610959977    0.4981323434
   0.9144580071    0.1087283357    0.0055394864
   0.8843056983    0.3093532399    0.5084970413
  -0.0015379718    0.3483855655   -0.0027791991
   0.8634621570    0.4965192523   -0.0091923995
   0.8523093619    0.6846250524    0.5074574737
   0.9884207436    0.5550576552    0.5235875156
   0.9842834582    0.7414905910    0.0147759537
   0.8376946310    0.8794079026    0.0073917735
   0.9625091648    0.9193266074    0.5173856302
   0.5345181743    0.0414271728    0.0204715718
   0.4178207789    0.0820667343    0.4962175050
   0.4531894996    0.2750237326    0.0065778551
   0.4777735890    0.4527912041    0.5004234134
   0.4821715426    0.6424639042    0.0181197449
   0.5011470660    0.8502657178    0.5015640093
   0.3021539187    0.1176307725    0.0144091545
   0.3328715586    0.3027720477    0.4950833158
   0.1884102212    0.1420191680    0.4986555211
   0.2156218855    0.3476505700   -0.0083126893
   0.3561491098    0.4969555922   -0.0244537596
   0.3709572151    0.6806754437    0.4855332783
   0.2339018901    0.5420939146    0.5048718303
   0.2327520698    0.7364367552    0.0047626880
   0.3821428567    0.8836653827   -0.0329243392
   0.2638602218    0.9154270463    0.5038071132
   0.1136403284    0.3711481201    0.5028772547
   0.1092839969    0.5627369500   -0.0035806060
   0.1079874207    0.7716127735    0.4984671336
   0.1085104414    0.9749974906    0.0023292404
