frenkel step_64
1.01693838334
  16.5412228322    0.0000000000    0.0000000000
   0.0000000000   10.3612888280    0.0000000000
   0.0000000000    0.0000000000    4.0414000000
40
Direct
   0.0322141469    0.1467901708    0.5038085331
   0.6855359288    0.0492954997    0.0119051082
   0.6062410121    0.2245044179    0.4956674697
   0.7983502823    0.0852998793    0.4945357975
   0.7647573786    0.2674866101    0.0124776921
   0.6107216438    0.4188398833    0.0071712544
   0.6102875279    0.6239816132    0.5164404052
   0.7343397288    0.4715543110    0.4629614847
   0.7385464863    0.6541158291   -0.0252415794
   0.6079501823    0.8301906891    0.0279621055
   0.7132960965    0.8618431306    0.5118742781
   0.9147095072    0.1120419920   -0.0034975020
   0.8832515752    0.3135723298    0.5053805278
  -0.0029861569    0.3498933439    0.0106137307
   0.8670336699    0.4950577970   -0.0021464920
   0.8547666087    0.6874096374    0.4974299889
   0.9866180912    0.5529960604    0.5303657278
   0.9830176360    0.7385402270   -0.0009444886
   0.8393683584    0.8809578027   -0.0045497847
   0.9602342379    0.9157478146    0.5037790150
   0.5317761733    0.0400330575    0.0135572380
   0.4203724581    0.0868791854    0.4952547593
   0.4520377080    0.2747024606   -0.0099190186
   0.4768419983    0.4516792495    0.4872260095
   0.4829268634    0.6443974941    0.0166221122
   0.5041158624    0.8474754380    0.5071026466
   0.2994049284    0.1187594967    0.0188672862
   0.3328735705    0.3033123553    0.4882655519
   0.1904373974    0.1454190010    0.5031391520
   0.2153322697    0.3508098699   -0.0070505703
   0.3526332838    0.4995559284   -0.0384549785
   0.3679872221    0.6872889198    0.4841658056
   0.2350348406    0.5420996193    0.4964637786
   0.2311851215    0.7316766710    0.0098512082
   0.3823688001    0.8822184130   -0.0304675450
   0.2623747733    0.9153290469    0.5076620324
   0.1138347233    0.3714109167    0.5045045974
   0.1119926055    0.5592363021   -0.0238313061
   0.1078183238    0.7646725405    0.5097872917
   0.1093006597    0.9788636329    0.0012397364
