frenkel step_65
1.01693838334
  16.5412228322    0.0000000000    0.0000000000
   0.0000000000   10.3612888280    0.0000000000
   0.0000000000    0.0000000000    4.0414000000
40
Direct
   0.0319245193    0.1463869084    0.4990154605
   0.6835217101    0.0517493953    0.0030900617
   0.6054303406    0.2242631467    0.4967045421
   0.8010067619    0.0871589122    0.5038078230
   0.7653061399    0.2669710669    0.0095935476
   0.6127472547    0.4192913866    0.0067112709
   0.6103604841    0.6208929169    0.5173895630
   0.7356126265    0.4739513108    0.4671986019
   0.7399603072    0.6539946677   -0.0307951468
   0.6103504279    0.8264105114    0.0235039024
   0.7120672849    0.8599679894    0.5102030187
   0.9156436871    0.1091451384   -0.0108092765
   0.8850598857    0.3150684902    0.5039014815
  -0.0024603689    0.3482016293    0.0089091691
   0.8668446699    0.4947384838    0.0037006147
   0.8542156816    0.6882520098    0.4946550061
   0.9879181186    0.5551403279    0.5320646750
   0.9844439841    0.7383953250   -0.0030417291
   0.8414769655    0.8830108579   -0.0034329411
   0.9592989082    0.9154392880    0.5065549064
   0.5324762898    0.0412693612    0.0149173102
   0.4195823325    0.0867228250    0.4932285284
   0.4528352866    0.2776453063   -0.0087433448
   0.4768419983    0.4516792495    0.4872260095
   0.4841328692    0.6465946509    0.0209903095
   0.5039491322    0.8490192823    0.5039490632
   0.2979957046    0.1174895148    0.0194419481
   0.3320883294    0.3054270914    0.4842153493
   0.1907454007    0.1442073512    0.5040508027
   0.2147060251    0.3487328384   -0.0084728159
   0.3517766520    0.5001992519   -0.0339318681
   0.3657320784    0.6865660372    0.4849590065
   0.2335515318    0.5418808340    0.4950997908
   0.2309377379    0.7313436213    0.0115312328
   0.3821001772    0.8832095765   -0.0299918917
   0.2623747733    0.9153290469    0.5076620324
   0.1138144308    0.3685634692    0.5002388890
   0.1132987256    0.5588087900   -0.0236654663
   0.1088658112    0.7633361585    0.5017094867
   0.1071645445    0.9763083814   -0.0016512726
