frenkel step_11
1.01693838334
  16.5412228322    0.0000000000    0.0000000000
   0.0000000000   10.3612888280    0.0000000000
   0.0000000000    0.0000000000    4.0414000000
40
Direct
   0.0329666420    0.1455932229    0.5050337946
   0.6885680583    0.0443045686   -0.0055585740
   0.6075862100    0.2197891744    0.4955792511
   0.8004286758    0.0799609547    0.5150191243
   0.7622513045    0.2738752783    0.0102315104
   0.6119821838    0.4221781580   -0.0007569849
   0.6113574045    0.6239972912    0.5124295764
   0.7378944412    0.4568562714    0.4891924456
   0.7332515445    0.6535750760    0.0006979642
   0.6124449044    0.8191824119    0.0104353455
   0.7161130682    0.8547415232    0.4999174292
   0.9168776716    0.1077860415    0.0017540609
   0.8846933144    0.3140621754    0.5092003790
   0.0018580720    0.3418335383    0.0036205192
   0.8709078912    0.5006347558    0.0002101568
   0.8552007435    0.6900739861    0.5012190780
   0.9908086683    0.5530306262    0.5127602553
   0.9835088329    0.7449291050   -0.0123868536
   0.8379441418    0.8852910172   -0.0031480143
   0.9618907593    0.9208677556    0.5081415889
   0.5323332878    0.0421148919    0.0113538895
   0.4200735963    0.0776475934    0.4917853114
   0.4574783467    0.2718312505   -0.0007603716
   0.4799120455    0.4552559302    0.5012673171
   0.4892015476    0.6461154111    0.0038622288
   0.5022297277    0.8452429466    0.4881031442
   0.3027900899    0.1109682825    0.0092152528
   0.3346700316    0.3097929899    0.5001412097
   0.1888387722    0.1427002269    0.4890235849
   0.2190240198    0.3389802801    0.0002489526
   0.3539181926    0.4975008887   -0.0018248812
   0.3654440897    0.6884140757    0.4975737236
   0.2336849940    0.5405888622    0.4903159328
   0.2357974315    0.7342726140   -0.0103522535
   0.3828995885    0.8822682183   -0.0020510494
   0.2618872523    0.9115293090    0.5116477255
   0.1106524588    0.3740364638    0.4979627752
   0.1121492815    0.5628526108    0.0014972980
   0.1101222758    0.7701921348    0.5017778489
   0.1058506257    0.9733018353   -0.0041874420
