frenkel step_48
1.01693838334
  16.5412228322    0.0000000000    0.0000000000
   0.0000000000   10.3612888280    0.0000000000
   0.0000000000    0.0000000000    4.0414000000
40
Direct
   0.0305400248    0.1464047729    0.5095581671
   0.6880838625    0.0466292101    0.0043522731
   0.6069490659    0.2256137189    0.4992321343
   0.8008350138    0.0859633416    0.4973770230
   0.7656664199    0.2711541884    0.0114970715
   0.6133171889    0.4223590173    0.0029604294
   0.6123206233    0.6212851546    0.5088215436
   0.7344445160    0.4666495475    0.4871434773
   0.7379053050    0.6507226606   -0.0194114920
   0.6131696278    0.8247217956    0.0152147822
   0.7155877034    0.8592166948    0.5022057918
   0.9170472941    0.1089694570   -0.0021216874
   0.8864792258    0.3117414025    0.5106729959
  -0.0014572792    0.3439039449    0.0010686582
   0.8639660851    0.4987191789   -0.0138837041
   0.8527364133    0.6859824333    0.5061531148
   0.9875733712    0.5531965232    0.5177526675
   0.9819969867    0.7387179638    0.0001426831
   0.8392425289    0.8827911993    0.0002419720
   0.9611871408    0.9201656644    0.5088833311
   0.5333397249    0.0422315871    0.0092648617
   0.4181360951    0.0793741059    0.4938339499
   0.4531894996    0.2750237326    0.0065778551
   0.4792535036    0.4568581975    0.5094933464
   0.4839178998    0.6437704654    0.0116720051
   0.5028020068    0.8471314451    0.5024037763
   0.3022435345    0.1126745933    0.0164858341
   0.3353246743    0.3060114778    0.4859041618
   0.1881742383    0.1444235434    0.4991944075
   0.2169039127    0.3479677737   -0.0149497463
   0.3556247606    0.5000301536   -0.0159005641
   0.3707139503    0.6821500571    0.4869675296
   0.2339339678    0.5453191929    0.5038735680
   0.2347117403    0.7354493541    0.0120039359
   0.3798983918    0.8830608537   -0.0257723682
   0.2623747714    0.9150874325    0.5043143134
   0.1118595709    0.3748574588    0.5021102917
   0.1099409087    0.5586873445   -0.0073847065
   0.1090158499    0.7691634833    0.4941612415
   0.1088474683    0.9748075584    0.0062694306
