frenkel step_46
1.01693838334
  16.5412228322    0.0000000000    0.0000000000
   0.0000000000   10.3612888280    0.0000000000
   0.0000000000    0.0000000000    4.0414000000
40
Direct
   0.0297013899    0.1454990853    0.5125714265
   0.6884838818    0.0483884410    0.0027031042
   0.6043912455    0.2280346769    0.5073622847
   0.8012227733    0.0851670199    0.4972716156
   0.7638738604    0.2723994921    0.0046314860
   0.6143863375    0.4213326264   -0.0090740633
   0.6119201868    0.6230145256    0.5114537504
   0.7344501727    0.4683633226    0.4765221785
   0.7375296631    0.6532390229   -0.0094352946
   0.6147364098    0.8264881575    0.0119031570
   0.7175734238    0.8569700097    0.5021638595
   0.9176416702    0.1094057757    0.0069975230
   0.8871511310    0.3104990243    0.5050212689
  -0.0028578000    0.3465196564    0.0080171286
   0.8657902241    0.4978870168   -0.0057060513
   0.8556367017    0.6859269540    0.5087414848
   0.9880056896    0.5517997122    0.5121658101
   0.9824209882    0.7412182769    0.0026703124
   0.8390677265    0.8848866472   -0.0017359592
   0.9609680499    0.9192019476    0.5081528929
   0.5321473571    0.0420467215    0.0125207669
   0.4181360951    0.0793741059    0.4938339499
   0.4533463460    0.2772805789   -0.0019078166
   0.4795097450    0.4550253432    0.5144769333
   0.4832882623    0.6434099197    0.0206906156
   0.5054973571    0.8452498961    0.4984755276
   0.3032502006    0.1118420244    0.0122812368
   0.3344094933    0.3090229146    0.4940952966
   0.1912781159    0.1456058351    0.5002477483
   0.2165627285    0.3471118730   -0.0141427765
   0.3568214755    0.4984605780   -0.0098361144
   0.3700468391    0.6822882580    0.4880688561
   0.2365302470    0.5456553441    0.5003762071
   0.2348434283    0.7359178467    0.0017039641
   0.3797943192    0.8840031205   -0.0302075291
   0.2613966642    0.9183269954    0.4982426368
   0.1141955378    0.3762047344    0.4901338946
   0.1105623485    0.5577444966   -0.0039339261
   0.1086360530    0.7692677283    0.4979987011
   0.1083456670    0.9745386737    0.0068688242
