frenkel step_1
1.01693838334
  16.5412228322    0.0000000000    0.0000000000
   0.0000000000   10.3612888280    0.0000000000
   0.0000000000    0.0000000000    4.0414000000
40
Direct
   0.0282803320    0.1512159813    0.4987140558
   0.6899378868    0.0447823103    0.0002150135
   0.6047550156    0.2214643941    0.4961107035
   0.8004951802    0.0830297937    0.5000000000
   0.7605134852    0.2758960070    0.0010926549
   0.6123795689    0.4237108699   -0.0035197249
   0.6107490485    0.6264911585    0.5000000000
   0.7395605905    0.4579814478    0.4972995757
   0.7335228231    0.6481452567    0.0054490021
   0.6096589436    0.8166654023   -0.0035897987
   0.7176889471    0.8527280583    0.5000000000
   0.9192992787    0.1151980011    0.0049948006
   0.8837551817    0.3113632138    0.5000000000
   0.0021817035    0.3423696340   -0.0030390894
   0.8687611367    0.5024968950    0.0000000000
   0.8517671405    0.6949785209    0.4976715480
   0.9883912044    0.5472971933    0.5010736916
   0.9817138232    0.7423580532    0.0029637105
   0.8377032635    0.8868495348   -0.0020022894
   0.9590053870    0.9174764907    0.4998221853
   0.5285082534    0.0417747590   -0.0015567628
   0.4194979436    0.0789320778    0.5046104154
   0.4588518997    0.2731608749    0.0028470583
   0.4828601360    0.4505656446    0.4956060741
   0.4898535968    0.6450514423   -0.0030442218
   0.5009513338    0.8488745183    0.5010451337
   0.3004951802    0.1092778986    0.0000000000
   0.3362599145    0.3072750418    0.5000000000
   0.1888380419    0.1456797229    0.5000000000
   0.2189829303    0.3405660672   -0.0057920655
   0.3523876908    0.4946995161    0.0031966479
   0.3701574554    0.6888077731    0.4967935465
   0.2341524235    0.5428757452    0.4960360726
   0.2381803885    0.7357901243   -0.0058684773
   0.3829628969    0.8830398453    0.0014099811
   0.2596207506    0.9137610186    0.5022194385
   0.1092138410    0.3757373529    0.5009554683
   0.1095408365    0.5634829903    0.0053141154
   0.1108709295    0.7696780947    0.5049075975
   0.1069217143    0.9709154119    0.0020175954
