frenkel step_80
1.01693838334
  16.5412228322    0.0000000000    0.0000000000
   0.0000000000   10.3612888280    0.0000000000
   0.0000000000    0.0000000000    4.0414000000
40
Direct
   0.0297466145    0.1511584154    0.5009762387
   0.6849696750    0.0467966185    0.0161115024
   0.6041216691    0.2234782679    0.5014220958
   0.7987859487    0.0835460028    0.4904046964
   0.7643322420    0.2644833767    0.0177398867
   0.6131448179    0.4172793949    0.0171917749
   0.6157620701    0.6195194352    0.5183499258
   0.7365624830    0.4659594748    0.4748471719
   0.7355644334    0.6556861330   -0.0368325834
   0.6102250302    0.8263095038    0.0181480430
   0.7141574278    0.8628234479    0.5222527657
   0.9155497109    0.1125039303   -0.0163014586
   0.8869058857    0.3148441314    0.5016737262
  -0.0012375873    0.3451234672    0.0080416770
   0.8658963648    0.5010974803    0.0014552585
   0.8523184992    0.6860989956    0.4897958490
   0.9869777075    0.5541397816    0.5344519726
   0.9820161251    0.7378827409    0.0101266499
   0.8407828305    0.8776397749   -0.0052559500
   0.9567437124    0.9158705392    0.4852304837
   0.5311124879    0.0428148895    0.0146061734
   0.4198382614    0.0845609906    0.4945319622
   0.4513319659    0.2726377811   -0.0098205201
   0.4764674698    0.4520002778    0.4960635343
   0.4840291073    0.6483432160    0.0311366097
   0.5047508754    0.8499217718    0.5044086110
   0.3002064372    0.1176209881    0.0190774226
   0.3339994850    0.3063137339    0.4863473871
   0.1910751627    0.1474597669    0.5065380391
   0.2153515636    0.3467043778   -0.0011721408
   0.3489304863    0.4977529740   -0.0363306008
   0.3652872245    0.6861446525    0.4837958480
   0.2355512853    0.5382909936    0.4914112546
   0.2305371081    0.7339341571    0.0027929345
   0.3828474603    0.8770908853   -0.0363044051
   0.2594183307    0.9114441299    0.5161332079
   0.1100378158    0.3740435611    0.5064845748
   0.1150716090    0.5611443788   -0.0234452911
   0.1090573621    0.7612667833    0.5175993894
   0.1078252926    0.9781629638    0.0001921565
