frenkel step_47
1.01693838334
  16.5412228322    0.0000000000    0.0000000000
   0.0000000000   10.3612888280    0.0000000000
   0.0000000000    0.0000000000    4.0414000000
40
Direct
   0.0296776583    0.1486040137    0.5064560673
   0.6895885874    0.0466738474    0.0065876311
   0.6070486992    0.2268725995    0.4998726823
   0.8014084732    0.0845641686    0.5023686259
   0.7646574846    0.2723581611    0.0063739360
   0.6145725284    0.4229261346   -0.0029505814
   0.6123206233    0.6212851546    0.5088215436
   0.7338695436    0.4655315843    0.4824633072
   0.7367774225    0.6526215675   -0.0147806828
   0.6124722689    0.8250084238    0.0094297983
   0.7155877034    0.8592166948    0.5022057918
   0.9170472941    0.1089694570   -0.0021216874
   0.8879069018    0.3104573525    0.5080230452
  -0.0023972985    0.3454989782    0.0058625709
   0.8646908128    0.4977388728   -0.0119586480
   0.8542408076    0.6861807146    0.5065377642
   0.9887133775    0.5539126134    0.5129095025
   0.9817625761    0.7385531770    0.0009939698
   0.8392425289    0.8827911993    0.0002419720
   0.9609680499    0.9192019476    0.5081528929
   0.5333397249    0.0422315871    0.0092648617
   0.4181360951    0.0793741059    0.4938339499
   0.4534741038    0.2766276543    0.0055711798
   0.4792585516    0.4556916322    0.5118061103
   0.4838882860    0.6429428411    0.0173204694
   0.5036811161    0.8474811771    0.4981443224
   0.3026126807    0.1120006807    0.0130692658
   0.3346679527    0.3074243656    0.4912206028
   0.1894899215    0.1464051643    0.4979655752
   0.2169039127    0.3479677737   -0.0149497463
   0.3568214755    0.4984605780   -0.0098361144
   0.3697824728    0.6826184000    0.4922889725
   0.2351538976    0.5452953915    0.5038228843
   0.2340511550    0.7376246595    0.0067265907
   0.3798983918    0.8830608537   -0.0257723682
   0.2608716043    0.9151945754    0.5015152494
   0.1128684780    0.3765544340    0.4984632999
   0.1107204464    0.5595435388   -0.0021728790
   0.1083859480    0.7715125009    0.4962098318
   0.1078689386    0.9758198509    0.0028543931
