frenkel step_62
1.01693838334
  16.5412228322    0.0000000000    0.0000000000
   0.0000000000   10.3612888280    0.0000000000
   0.0000000000    0.0000000000    4.0414000000
40
Direct
   0.0306263592    0.1435933350    0.5028206949
   0.6843615050    0.0508113533    0.0064559526
   0.6063888082    0.2231539586    0.5017037154
   0.7997009153    0.0864992674    0.4988584791
   0.7633354992    0.2689708687    0.0068629261
   0.6119602492    0.4180561504    0.0157345946
   0.6116535505    0.6229720434    0.5141968083
   0.7342039150    0.4715201344    0.4567786501
   0.7393678059    0.6551454504   -0.0230229926
   0.6096727989    0.8263275351    0.0236442972
   0.7125942369    0.8632738294    0.5126185243
   0.9131044867    0.1095635029   -0.0033263152
   0.8844338842    0.3147635440    0.5137543929
  -0.0016616542    0.3481265994    0.0090635228
   0.8657074718    0.4946201793    0.0022269936
   0.8542156816    0.6882520098    0.4946550061
   0.9878714084    0.5540773338    0.5304580645
   0.9827606607    0.7410282869    0.0075075260
   0.8395985353    0.8845317149   -0.0060800155
   0.9582216016    0.9154652934    0.5065365280
   0.5320194250    0.0436813778    0.0242715309
   0.4202444525    0.0848388882    0.4902116676
   0.4516616461    0.2753951176   -0.0058068086
   0.4772724132    0.4492829177    0.4858984593
   0.4827760103    0.6439682797    0.0112149836
   0.5035618273    0.8491025048    0.5094787627
   0.2992871252    0.1201857516    0.0235697889
   0.3318725771    0.3045399105    0.4817869104
   0.1904883432    0.1443308098    0.5075004009
   0.2150139486    0.3489625832   -0.0030403030
   0.3507956432    0.5010550410   -0.0308901305
   0.3652594190    0.6885570483    0.4840782146
   0.2328828619    0.5421624720    0.4978466955
   0.2309377379    0.7313436213    0.0115312328
   0.3829132951    0.8822256347   -0.0334183993
   0.2633112030    0.9163962156    0.5099151097
   0.1125147933    0.3684931706    0.5085967030
   0.1118905834    0.5591797713   -0.0234717679
   0.1094263726    0.7653446536    0.5107138181
   0.1099919427    0.9795142509    0.0035332056
