frenkel step_79
1.01693838334
  16.5412228322    0.0000000000    0.0000000000
   0.0000000000   10.3612888280    0.0000000000
   0.0000000000    0.0000000000    4.0414000000
40
Direct
   0.0284205555    0.1501098769    0.4955151305
   0.6848139439    0.0470262244    0.0146013654
   0.6057992019    0.2230275902    0.4952364772
   0.7998235809    0.0851891971    0.4943850653
   0.7649639026    0.2652667685    0.0143661211
   0.6137249767    0.4195487883    0.0114166346
   0.6151449463    0.6203280919    0.5160961856
   0.7360269145    0.4653705650    0.4685342327
   0.7344204813    0.6541116390   -0.0342801438
   0.6085103661    0.8245238930    0.0172308717
   0.7146745184    0.8618603520    0.5210466250
   0.9131668627    0.1093726246   -0.0142654435
   0.8841136231    0.3126955631    0.5028418131
  -0.0014902947    0.3450844720    0.0029959777
   0.8672504773    0.5010422708    0.0022341779
   0.8537896553    0.6882059802    0.4924705951
   0.9870473489    0.5532119536    0.5332477077
   0.9820161251    0.7378827409    0.0101266499
   0.8398980485    0.8820052913   -0.0151829783
   0.9562368608    0.9137857975    0.4861440495
   0.5301796649    0.0454590578    0.0176914846
   0.4198026028    0.0833207590    0.4888269307
   0.4507390805    0.2705934913   -0.0097182139
   0.4767820164    0.4503663291    0.4953031176
   0.4832412968    0.6473354626    0.0258394993
   0.5056748817    0.8470939825    0.5116311992
   0.2990340784    0.1180261504    0.0183529877
   0.3340593134    0.3044723819    0.4842863130
   0.1896340828    0.1457674434    0.5135267098
   0.2169714367    0.3491727494    0.0047770036
   0.3516079633    0.4972036579   -0.0390211286
   0.3661114678    0.6856897663    0.4793084901
   0.2355609587    0.5401556409    0.4867876397
   0.2297881140    0.7343857026   -0.0004181493
   0.3850854897    0.8765180731   -0.0387369875
   0.2594146652    0.9138378435    0.5180113611
   0.1109461234    0.3734605774    0.4984855376
   0.1140178649    0.5621029946   -0.0257064496
   0.1081530294    0.7601310317    0.5197046278
   0.1088236992    0.9776196604    0.0048254927
