frenkel step_24
1.01693838334
  16.5412228322    0.0000000000    0.0000000000
   0.0000000000   10.3612888280    0.0000000000
   0.0000000000    0.0000000000    4.0414000000
40
Direct
   0.0313742203    0.1477441849    0.5060525866
   0.6868143494    0.0445741244   -0.0069929041
   0.6071226073    0.2241420642    0.4982516709
   0.8000733563    0.0829012966    0.5135931555
   0.7633251860    0.2769174170    0.0083472981
   0.6139600104    0.4244829435   -0.0025709367
   0.6127269381    0.6236774979    0.5033232951
   0.7347704753    0.4613101103    0.4877431941
   0.7333045446    0.6516149476   -0.0045842686
   0.6098220009    0.8211572223    0.0082564972
   0.7180411840    0.8560796002    0.5032721367
   0.9188606288    0.1098440853   -0.0007606707
   0.8858872505    0.3132040669    0.5024907701
   0.0012721724    0.3397636701    0.0045691035
   0.8696240605    0.4990562691    0.0008681569
   0.8545323643    0.6894728748    0.4989290879
   0.9884852366    0.5522791636    0.5154400623
   0.9834329901    0.7414007456   -0.0149579880
   0.8400845095    0.8806891043   -0.0086152526
   0.9613024956    0.9217075408    0.5105081017
   0.5321378395    0.0424601786    0.0063061746
   0.4164540378    0.0805259892    0.4820430547
   0.4574243335    0.2760484667    0.0033034404
   0.4800808508    0.4592308891    0.5020463731
   0.4872766826    0.6456882730    0.0089372436
   0.5040185547    0.8421945633    0.4901070382
   0.3001372788    0.1076365893    0.0065561499
   0.3358914527    0.3076630703    0.4964954843
   0.1899565806    0.1467817975    0.5025711707
   0.2205113452    0.3383754017   -0.0063341980
   0.3544754217    0.4968365023   -0.0049358001
   0.3657326163    0.6806193825    0.4828160017
   0.2325997480    0.5451632152    0.4924017590
   0.2354396997    0.7328319932    0.0041914361
   0.3836395359    0.8849814452   -0.0134159319
   0.2601362799    0.9115379532    0.5042873495
   0.1118983035    0.3736169009    0.5057929587
   0.1129296769    0.5637898234   -0.0018192570
   0.1084971841    0.7729222795    0.5095216029
   0.1097763663    0.9727856829   -0.0016726774
