frenkel step_89
1.01693838334
  16.5412228322    0.0000000000    0.0000000000
   0.0000000000   10.3612888280    0.0000000000
   0.0000000000    0.0000000000    4.0414000000
40
Direct
   0.0273373303    0.1476927120    0.5009978693
   0.6847344609    0.0467366898    0.0157704683
   0.6045232444    0.2245183903    0.5025093500
   0.8014674493    0.0828099122    0.4963007638
   0.7628365240    0.2683330419    0.0073121702
   0.6131240339    0.4200690283    0.0096799822
   0.6173784191    0.6197111087    0.5090931283
   0.7367214036    0.4638248718    0.4714886745
   0.7343728145    0.6536281689   -0.0419085149
   0.6078626618    0.8232018367    0.0159027679
   0.7146805675    0.8629303674    0.5191035879
   0.9132364314    0.1130137361   -0.0151679334
   0.8853481467    0.3130642156    0.5119347853
  -0.0014384639    0.3427318498    0.0077014227
   0.8649038068    0.5021114614    0.0053349134
   0.8524458750    0.6865318288    0.4876576242
   0.9883613871    0.5540652076    0.5335951954
   0.9805429993    0.7364290376   -0.0007730511
   0.8399440152    0.8778879942   -0.0045576706
   0.9573422015    0.9139044604    0.4850664983
   0.5305750206    0.0437971318    0.0187719943
   0.4224423785    0.0833956973    0.4928849572
   0.4535960962    0.2725153535   -0.0029259411
   0.4781900686    0.4535241406    0.4902922597
   0.4842233862    0.6494090798    0.0288236775
   0.5068587181    0.8492849623    0.5109659264
   0.2997689159    0.1203147257    0.0151655849
   0.3348493080    0.3093757465    0.4877131203
   0.1896701280    0.1483573477    0.5063306817
   0.2186475906    0.3485009377    0.0081144854
   0.3509639449    0.4970364987   -0.0378181526
   0.3669706400    0.6859388348    0.4836214170
   0.2381534920    0.5433064584    0.4806036244
   0.2285893081    0.7326443064    0.0030007298
   0.3856719292    0.8795224581   -0.0352883272
   0.2617250863    0.9110906878    0.5234455511
   0.1110129883    0.3693623551    0.5031136436
   0.1145410379    0.5627702217   -0.0204612325
   0.1103388853    0.7610906642    0.5186294394
   0.1089332117    0.9797222752    0.0043714937
