frenkel step_36
1.01693838334
  16.5412228322    0.0000000000    0.0000000000
   0.0000000000   10.3612888280    0.0000000000
   0.0000000000    0.0000000000    4.0414000000
40
Direct
   0.0305539378    0.1463984174    0.5076390871
   0.6891955617    0.0474801714    0.0004794607
   0.6069569704    0.2240505251    0.5052592925
   0.8025236120    0.0837009160    0.5012099382
   0.7641342638    0.2746442967    0.0100384065
   0.6143863375    0.4213326264   -0.0090740633
   0.6119201868    0.6230145256    0.5114537504
   0.7330451445    0.4657048442    0.4812847091
   0.7368761508    0.6515736881   -0.0093524852
   0.6127784714    0.8249623365    0.0070087613
   0.7154812715    0.8565520399    0.5080117170
   0.9189015289    0.1108563540    0.0063919259
   0.8867114776    0.3135444335    0.5028380832
  -0.0014239677    0.3478130181    0.0109955426
   0.8660560468    0.4990470328   -0.0069673892
   0.8542408076    0.6861807146    0.5065377642
   0.9870889840    0.5504795537    0.5145545385
   0.9816302541    0.7397391973   -0.0025318527
   0.8389864452    0.8812583202   -0.0027008477
   0.9604388329    0.9186406206    0.5072022225
   0.5313187743    0.0400958548    0.0137785198
   0.4169478108    0.0814916567    0.4919769630
   0.4545192599    0.2783146194    0.0038859280
   0.4798973079    0.4551600621    0.5092993928
   0.4829967893    0.6443548711    0.0149026614
   0.5052896366    0.8452058438    0.4944548962
   0.3016059143    0.1117806465    0.0115837579
   0.3336838927    0.3076760141    0.4972179510
   0.1904921881    0.1443343157    0.4990583824
   0.2177823841    0.3459494933   -0.0166754843
   0.3561395692    0.4994463333   -0.0042347772
   0.3698183323    0.6803751258    0.4899350585
   0.2355503855    0.5466914703    0.4954026813
   0.2353128210    0.7362486907    0.0068997551
   0.3793096840    0.8847119084   -0.0304524601
   0.2602144498    0.9158738735    0.5011570671
   0.1139629454    0.3738432658    0.5013866605
   0.1107902538    0.5581193006   -0.0040314951
   0.1077189346    0.7708705226    0.5046675376
   0.1078799280    0.9732631769   -0.0037683978
