frenkel step_99
1.01693838334
  16.5412228322    0.0000000000    0.0000000000
   0.0000000000   10.3612888280    0.0000000000
   0.0000000000    0.0000000000    4.0414000000
40
Direct
   0.0270953988    0.1477042618    0.4984371949
   0.6843488268    0.0448201800    0.0197802149
   0.6020033226    0.2232787101    0.5129642302
   0.8024950860    0.0800605913    0.4952373346
   0.7658472893    0.2679737913    0.0218774111
   0.6138156511    0.4205596354    0.0244470839
   0.6176662368    0.6174346690    0.5077203097
   0.7341402113    0.4685413132    0.4757937660
   0.7342758451    0.6522748588   -0.0316273258
   0.6099473718    0.8227378499    0.0124300151
   0.7149614795    0.8656611376    0.5239986971
   0.9159311343    0.1086954075   -0.0063612434
   0.8812084237    0.3118953689    0.5010456688
  -0.0004437769    0.3447102805    0.0105944046
   0.8662795659    0.5025614285   -0.0011783339
   0.8525528194    0.6917027712    0.4926422002
   0.9861470307    0.5559279495    0.5300708350
   0.9819344186    0.7345598582   -0.0040332585
   0.8378142433    0.8698133978   -0.0037716736
   0.9540526327    0.9096373387    0.4848336024
   0.5283773963    0.0412217414    0.0300136090
   0.4248437312    0.0844991053    0.4964953703
   0.4528472485    0.2734210747   -0.0063347652
   0.4783173524    0.4548034292    0.4978824856
   0.4813789404    0.6482921711    0.0279030611
   0.5052992387    0.8500338265    0.5149631243
   0.3010864567    0.1180410136    0.0176640071
   0.3348630373    0.3087099909    0.4872637530
   0.1879477200    0.1472466330    0.5082998545
   0.2148220218    0.3489360136    0.0105889497
   0.3502759887    0.4991099337   -0.0378564187
   0.3673367680    0.6881764147    0.4743122869
   0.2372388060    0.5476366591    0.4751954622
   0.2323923717    0.7292146258    0.0113106167
   0.3804077719    0.8783397199   -0.0333128258
   0.2626402808    0.9079218898    0.5267484554
   0.1125556321    0.3774859535    0.4999013992
   0.1170485630    0.5624659723   -0.0044734624
   0.1072370450    0.7616220313    0.5085746617
   0.1115882813    0.9697386510    0.0033120965
