frenkel step_30
1.01693838334
  16.5412228322    0.0000000000    0.0000000000
   0.0000000000   10.3612888280    0.0000000000
   0.0000000000    0.0000000000    4.0414000000
40
Direct
   0.0316523076    0.1467562971    0.5110981852
   0.6863791446    0.0473370536   -0.0052127084
   0.6047735142    0.2253302023    0.4885696543
   0.7992777222    0.0833951735    0.5155038695
   0.7619368199    0.2775135733    0.0128362298
   0.6128467480    0.4234142334   -0.0029580055
   0.6111819400    0.6245004546    0.5054605835
   0.7342411080    0.4600339982    0.4906617530
   0.7318652473    0.6518277399   -0.0065207557
   0.6117296782    0.8250844708    0.0103170347
   0.7174811717    0.8588074798    0.5001047568
   0.9185194932    0.1117696129    0.0035692171
   0.8848670449    0.3114675920    0.4958475555
   0.0006372227    0.3414328522    0.0007938012
   0.8670018447    0.4994596966    0.0040601395
   0.8542472675    0.6881297095    0.5038782622
   0.9871596410    0.5534443828    0.5142223082
   0.9830625856    0.7398523419   -0.0045016206
   0.8409659170    0.8785176780   -0.0131313569
   0.9603917544    0.9192966011    0.5133868728
   0.5303763779    0.0404184952    0.0203951051
   0.4165359934    0.0803412994    0.4897846448
   0.4569118815    0.2777735808    0.0055312558
   0.4790800223    0.4577749697    0.5018743351
   0.4845951461    0.6435708757    0.0023620952
   0.5058894282    0.8435552601    0.4936851323
   0.2994073677    0.1121148412    0.0089587112
   0.3351258687    0.3048120807    0.5020162816
   0.1918651406    0.1481086407    0.5046227964
   0.2194003927    0.3423200348   -0.0052352847
   0.3532124508    0.4962953417    0.0023215092
   0.3677999526    0.6806288335    0.4887752001
   0.2346979407    0.5488889370    0.4886166988
   0.2358231270    0.7340877926   -0.0027600683
   0.3813070374    0.8829528627   -0.0199828541
   0.2598297916    0.9132448887    0.5076446340
   0.1114426728    0.3708725711    0.5065304491
   0.1145913191    0.5609663530    0.0025459260
   0.1074697284    0.7731449448    0.5164035794
   0.1095000723    0.9714410328   -0.0051484437
