frenkel step_57
1.01693838334
  16.5412228322    0.0000000000    0.0000000000
   0.0000000000   10.3612888280    0.0000000000
   0.0000000000    0.0000000000    4.0414000000
40
Direct
   0.0322254558    0.1490748896    0.5102998099
   0.6857685874    0.0507971960    0.0007910511
   0.6065438103    0.2281151627    0.4925339613
   0.7993893728    0.0876231185    0.4918747596
   0.7655465739    0.2705575399    0.0228474676
   0.6111747334    0.4183843481    0.0127803391
   0.6099538920    0.6206320049    0.5074524594
   0.7318110070    0.4739719382    0.4654432953
   0.7399645927    0.6522392628   -0.0188490916
   0.6116920896    0.8264819820    0.0131251040
   0.7132695030    0.8609344952    0.5022472007
   0.9129296247    0.1090250746   -0.0087289655
   0.8861016450    0.3123036038    0.5066496546
  -0.0007202446    0.3480342615    0.0086535940
   0.8648138763    0.4953830903   -0.0084407927
   0.8546716477    0.6836258703    0.5001295808
   0.9874502108    0.5505111012    0.5363865427
   0.9848609641    0.7439835516   -0.0023883447
   0.8401404746    0.8801431488    0.0000318150
   0.9576102209    0.9187260421    0.5002772580
   0.5318718027    0.0402030511    0.0144119450
   0.4181828832    0.0844612233    0.4886571956
   0.4524981385    0.2730579256   -0.0003229391
   0.4773847008    0.4521684948    0.4953828239
   0.4834805999    0.6438296666    0.0175124436
   0.5035731494    0.8475472919    0.5012530685
   0.3009087074    0.1175145260    0.0178402546
   0.3327445184    0.3043830185    0.4954509827
   0.1885243370    0.1439539103    0.4911687326
   0.2163328005    0.3480787931   -0.0109365890
   0.3549063395    0.4977521279   -0.0288139297
   0.3694995865    0.6832613223    0.4943803348
   0.2350508290    0.5427540213    0.5097743435
   0.2298708987    0.7315331037    0.0198531834
   0.3817578582    0.8842922506   -0.0336578755
   0.2633945586    0.9140927326    0.5026123887
   0.1127720797    0.3729101115    0.5072509236
   0.1112995210    0.5600201565   -0.0230494892
   0.1109739086    0.7642167749    0.4910179928
   0.1081392248    0.9775976483    0.0075820064
