frenkel step_92
1.01693838334
  16.5412228322    0.0000000000    0.0000000000
   0.0000000000   10.3612888280    0.0000000000
   0.0000000000    0.0000000000    4.0414000000
40
Direct
   0.0280259517    0.1478980150    0.5019393879
   0.6829738608    0.0469434676    0.0115139772
   0.6028735449    0.2213309861    0.5043789667
   0.8020540713    0.0823471198    0.4943195872
   0.7659310958    0.2698928464    0.0172430380
   0.6125458362    0.4187685025    0.0084908300
   0.6169363655    0.6190500008    0.5171052082
   0.7357290815    0.4660934337    0.4742014793
   0.7336220476    0.6517355402   -0.0362642509
   0.6081149545    0.8208138678    0.0190381502
   0.7151789603    0.8652732178    0.5119675982
   0.9129075366    0.1108308527   -0.0108738779
   0.8840705759    0.3134275680    0.5062228163
  -0.0025120282    0.3439912081    0.0127818557
   0.8646440421    0.4999334873   -0.0013448691
   0.8526986099    0.6888967345    0.4825286349
   0.9874342437    0.5548848234    0.5334987511
   0.9806978851    0.7356913431    0.0009252324
   0.8393416843    0.8760649963   -0.0057757235
   0.9568178119    0.9106795825    0.4806500583
   0.5294604585    0.0396736705    0.0295006104
   0.4232181544    0.0834135448    0.4897116231
   0.4540913427    0.2727195218    0.0043079143
   0.4771884264    0.4549376683    0.4921966507
   0.4810882069    0.6462131877    0.0270112788
   0.5046402188    0.8496271735    0.5151063764
   0.3008292179    0.1202882575    0.0226491551
   0.3337406806    0.3092497862    0.4912733188
   0.1889542458    0.1490507833    0.5076918570
   0.2161854122    0.3482726301    0.0055335405
   0.3490428395    0.4993997709   -0.0402768706
   0.3664119315    0.6877546669    0.4760398761
   0.2369968666    0.5435679635    0.4796598655
   0.2323251840    0.7297063935    0.0136099159
   0.3834059315    0.8770465961   -0.0352463568
   0.2622313938    0.9093242934    0.5223192461
   0.1122904594    0.3725132020    0.5011613354
   0.1153754357    0.5621014350   -0.0181806875
   0.1070623906    0.7596309576    0.5106836980
   0.1082295056    0.9755984985    0.0052363158
