frenkel step_38
1.01693838334
  16.5412228322    0.0000000000    0.0000000000
   0.0000000000   10.3612888280    0.0000000000
   0.0000000000    0.0000000000    4.0414000000
40
Direct
   0.0319260359    0.1451782273    0.5133503874
   0.6891955617    0.0474801714    0.0004794607
   0.6070295953    0.2251526417    0.5087400281
   0.8030008950    0.0815702027    0.5050262354
   0.7651642167    0.2722861550    0.0099742596
   0.6137389215    0.4211505941   -0.0081297008
   0.6104866296    0.6224729334    0.5107629927
   0.7324852078    0.4663424136    0.4769283419
   0.7358602890    0.6537503933   -0.0089505752
   0.6117829471    0.8262024272    0.0079704985
   0.7142959395    0.8560670886    0.5059332286
   0.9196611019    0.1109592981    0.0101608937
   0.8881162190    0.3131552493    0.5005987861
  -0.0014239677    0.3478130181    0.0109955426
   0.8669610224    0.5000462934   -0.0055132478
   0.8547978191    0.6875349822    0.5113178502
   0.9863013378    0.5500376555    0.5172898846
   0.9814037440    0.7391679683    0.0003243736
   0.8388302103    0.8823020904   -0.0067718434
   0.9604388329    0.9186406206    0.5072022225
   0.5324256153    0.0417527665    0.0116290718
   0.4159340080    0.0837826102    0.4978675031
   0.4550049883    0.2779305222    0.0057253438
   0.4798973079    0.4551600621    0.5092993928
   0.4837453097    0.6462867657    0.0160921420
   0.5051819270    0.8466275382    0.4987204364
   0.3027297417    0.1122157621    0.0104663167
   0.3346981636    0.3078903010    0.4934295875
   0.1904921881    0.1443343157    0.4990583824
   0.2190981889    0.3479115384   -0.0211258073
   0.3555912840    0.5005702537   -0.0054131101
   0.3691148385    0.6787557939    0.4919851608
   0.2355503855    0.5466914703    0.4954026813
   0.2360869827    0.7349169761    0.0033328432
   0.3793096840    0.8847119084   -0.0304524601
   0.2612786591    0.9177478101    0.4982685439
   0.1153403598    0.3720474346    0.5048107731
   0.1107902538    0.5581193006   -0.0040314951
   0.1089475854    0.7696534045    0.5047610263
   0.1072212085    0.9741848116    0.0020696460
