frenkel step_51
1.01693838334
  16.5412228322    0.0000000000    0.0000000000
   0.0000000000   10.3612888280    0.0000000000
   0.0000000000    0.0000000000    4.0414000000
40
Direct
   0.0297014457    0.1473250401    0.5041790244
   0.6880838625    0.0466292101    0.0043522731
   0.6069490659    0.2256137189    0.4992321343
   0.8008350138    0.0859633416    0.4973770230
   0.7662965615    0.2692665327    0.0146764709
   0.6118588032    0.4211479810    0.0048286287
   0.6110137724    0.6197776856    0.5065713617
   0.7345709935    0.4673110007    0.4820973382
   0.7385340569    0.6512690445   -0.0201339707
   0.6120304672    0.8255004409    0.0196738908
   0.7148192381    0.8595508301    0.4994626598
   0.9156702932    0.1085504274   -0.0038955741
   0.8853238128    0.3106347217    0.5079030364
  -0.0020511102    0.3450305925   -0.0005822411
   0.8645007227    0.4997506841   -0.0080697957
   0.8533028966    0.6855260638    0.5017357560
   0.9875733712    0.5531965232    0.5177526675
   0.9820613942    0.7386307301    0.0049852253
   0.8392425289    0.8827911993    0.0002419720
   0.9623036512    0.9185123751    0.5084791723
   0.5329978306    0.0422268226    0.0141531931
   0.4193287629    0.0804836503    0.4983668640
   0.4531894996    0.2750237326    0.0065778551
   0.4781635970    0.4546019278    0.5053166835
   0.4837030018    0.6434100988    0.0137033858
   0.5025874329    0.8479526157    0.5014708171
   0.3017610786    0.1139171616    0.0119367424
   0.3339810771    0.3051154582    0.4872954647
   0.1883893305    0.1430595169    0.4976745198
   0.2159903467    0.3467388768   -0.0119458807
   0.3554022894    0.4982245422   -0.0207646964
   0.3703812414    0.6808457620    0.4819730142
   0.2352823184    0.5440092933    0.5046789148
   0.2336450229    0.7332983468    0.0063061217
   0.3813563528    0.8830814546   -0.0283187101
   0.2623747714    0.9150874325    0.5043143134
   0.1132001335    0.3730582391    0.5027034023
   0.1099409087    0.5586873445   -0.0073847065
   0.1091640312    0.7696371159    0.4988509307
   0.1085104414    0.9749974906    0.0023292404
