frenkel step_19
1.01693838334
  16.5412228322    0.0000000000    0.0000000000
   0.0000000000   10.3612888280    0.0000000000
   0.0000000000    0.0000000000    4.0414000000
40
Direct
   0.0328974479    0.1486129110    0.4962282288
   0.6862064410    0.0431699034    0.0033012687
   0.6050840519    0.2240071924    0.4989957154
   0.7983741032    0.0808624450    0.5045981225
   0.7640867426    0.2748188332    0.0132443431
   0.6121607094    0.4201274614   -0.0032281847
   0.6133121178    0.6245145486    0.5089270066
   0.7375104414    0.4586424077    0.4964761965
   0.7328189846    0.6516708720   -0.0035131262
   0.6100499061    0.8209984995    0.0113871251
   0.7169712822    0.8540455447    0.4996181778
   0.9179424149    0.1121464995    0.0075757724
   0.8849828569    0.3128589075    0.5087267756
   0.0015928829    0.3401404394   -0.0037513072
   0.8717522061    0.5024184323    0.0033402826
   0.8539450695    0.6917794508    0.4960331152
   0.9896544605    0.5520576683    0.5101005534
   0.9820243969    0.7421518867   -0.0157237321
   0.8396693443    0.8843220020   -0.0080071110
   0.9618093865    0.9215109637    0.5040614837
   0.5313883389    0.0405352304    0.0000996075
   0.4171683050    0.0783913303    0.4911701177
   0.4584195692    0.2733543120    0.0023368619
   0.4788524050    0.4600917595    0.5006340982
   0.4871459380    0.6454387606    0.0103842963
   0.5007363035    0.8449275057    0.4860937090
   0.3001693419    0.1076374904    0.0043188799
   0.3357836857    0.3086331574    0.4961696256
   0.1901349922    0.1432184649    0.4938698875
   0.2210211828    0.3357629061   -0.0033497949
   0.3528955183    0.4988522553   -0.0067537851
   0.3666331733    0.6877109916    0.4907132825
   0.2307728746    0.5435986394    0.4968820543
   0.2360316662    0.7328724371   -0.0051175466
   0.3854546297    0.8847427516   -0.0124691419
   0.2617559250    0.9115577606    0.5025725034
   0.1116117532    0.3756340559    0.5039342382
   0.1121561244    0.5653213509    0.0007620222
   0.1096096643    0.7701955090    0.5036047591
   0.1089730199    0.9706170004   -0.0016056134
