frenkel step_75
1.01693838334
  16.5412228322    0.0000000000    0.0000000000
   0.0000000000   10.3612888280    0.0000000000
   0.0000000000    0.0000000000    4.0414000000
40
Direct
   0.0292915704    0.1487465813    0.4967969706
   0.6848139439    0.0470262244    0.0146013654
   0.6043522518    0.2226014408    0.5003275601
   0.7998235809    0.0851891971    0.4943850653
   0.7645474765    0.2664169792    0.0138745604
   0.6137249767    0.4195487883    0.0114166346
   0.6157620701    0.6195194352    0.5183499258
   0.7353670683    0.4661725873    0.4725884961
   0.7355644334    0.6556861330   -0.0368325834
   0.6092023126    0.8242569633    0.0219343472
   0.7141574278    0.8628234479    0.5222527657
   0.9141151876    0.1107982910   -0.0182084382
   0.8854519801    0.3143278781    0.5050727262
  -0.0014902947    0.3450844720    0.0029959777
   0.8658963648    0.5010974803    0.0014552585
   0.8530276154    0.6875590805    0.4863709066
   0.9872929886    0.5536108408    0.5285800330
   0.9820161251    0.7378827409    0.0101266499
   0.8405748839    0.8798785141   -0.0092507822
   0.9558986092    0.9149270536    0.4883753813
   0.5305750206    0.0437971318    0.0187719943
   0.4198382614    0.0845609906    0.4945319622
   0.4521087712    0.2712074720   -0.0057503255
   0.4773623349    0.4518095279    0.4952039697
   0.4832412968    0.6473354626    0.0258394993
   0.5055199136    0.8476788763    0.5101655799
   0.3002064372    0.1176209881    0.0190774226
   0.3330644089    0.3067190507    0.4844672026
   0.1909218110    0.1468015309    0.5085936564
   0.2162796562    0.3477484699    0.0006845855
   0.3502107766    0.4990463128   -0.0350901808
   0.3658447945    0.6879495830    0.4812281077
   0.2355609587    0.5401556409    0.4867876397
   0.2291527173    0.7340923596    0.0006301029
   0.3839953903    0.8776357939   -0.0328590269
   0.2609072175    0.9137439062    0.5162714358
   0.1110730891    0.3720945771    0.5024558355
   0.1140178649    0.5621029946   -0.0257064496
   0.1090573621    0.7612667833    0.5175993894
   0.1073655031    0.9790729115    0.0001304594
