frenkel step_53
1.01693838334
  16.5412228322    0.0000000000    0.0000000000
   0.0000000000   10.3612888280    0.0000000000
   0.0000000000    0.0000000000    4.0414000000
40
Direct
   0.0301117660    0.1491957997    0.5064958337
   0.6868028519    0.0488502236    0.0040690450
   0.6074391321    0.2248620917    0.4964185524
   0.8008350138    0.0859633416    0.4973770230
   0.7651288266    0.2697985249    0.0181728761
   0.6130361475    0.4220360629    0.0088499224
   0.6114127961    0.6202403224    0.5021842077
   0.7343366269    0.4693168364    0.4774644839
   0.7385340569    0.6512690445   -0.0201339707
   0.6120304672    0.8255004409    0.0196738908
   0.7146256650    0.8612247525    0.5035636662
   0.9153338886    0.1098047301    0.0022484966
   0.8857572554    0.3096987511    0.5124155999
  -0.0009928225    0.3474123356    0.0031239490
   0.8641307910    0.4983978819   -0.0072338606
   0.8523093619    0.6846250524    0.5074574737
   0.9884207436    0.5550576552    0.5235875156
   0.9829972323    0.7399210530    0.0088356298
   0.8387078861    0.8809013727    0.0013830090
   0.9618501217    0.9180692746    0.5125224181
   0.5336354378    0.0438040509    0.0194129595
   0.4178207789    0.0820667343    0.4962175050
   0.4531894996    0.2750237326    0.0065778551
   0.4770245897    0.4541038430    0.4997329311
   0.4834932717    0.6440586004    0.0153993992
   0.5025874329    0.8479526157    0.5014708171
   0.3027126321    0.1161479534    0.0175024057
   0.3342320973    0.3044679862    0.4929485009
   0.1886722707    0.1425211938    0.4954757070
   0.2159537391    0.3474261745   -0.0110847421
   0.3561491098    0.4969555922   -0.0244537596
   0.3709572151    0.6806754437    0.4855332783
   0.2352823184    0.5440092933    0.5046789148
   0.2331791104    0.7343111058    0.0087139335
   0.3808151649    0.8825617656   -0.0273882678
   0.2623747714    0.9150874325    0.5043143134
   0.1139780087    0.3711080090    0.5074403550
   0.1093241476    0.5607472542   -0.0059574393
   0.1080576560    0.7711414867    0.4989833522
   0.1085104414    0.9749974906    0.0023292404
