frenkel step_12
1.01693838334
  16.5412228322    0.0000000000    0.0000000000
   0.0000000000   10.3612888280    0.0000000000
   0.0000000000    0.0000000000    4.0414000000
40
Direct
   0.0312424495    0.1442348905    0.5015464498
   0.6885680583    0.0443045686   -0.0055585740
   0.6061899705    0.2210944759    0.4968487605
   0.7990085448    0.0790658755    0.5131309937
   0.7621928057    0.2739019530    0.0178472239
   0.6127157495    0.4198413093    0.0008496698
   0.6121052597    0.6208741071    0.5126493566
   0.7374494369    0.4609962588    0.4987127130
   0.7324853184    0.6514488244   -0.0053527152
   0.6121593155    0.8200724697    0.0176148392
   0.7179587346    0.8571371461    0.4945869724
   0.9192920352    0.1079770103    0.0060026636
   0.8846933144    0.3140621754    0.5092003790
   0.0002570482    0.3408047625    0.0020393611
   0.8723403528    0.5016029430    0.0044390841
   0.8539450695    0.6917794508    0.4960331152
   0.9881454687    0.5491828214    0.5079057601
   0.9812380151    0.7435563978   -0.0059756328
   0.8382953340    0.8847325596   -0.0006314726
   0.9604422173    0.9183059048    0.5036016931
   0.5337816024    0.0445318554    0.0010138931
   0.4179797929    0.0741148107    0.4866630706
   0.4566237514    0.2730033938   -0.0045214352
   0.4791596498    0.4578543572    0.4919088071
   0.4880213739    0.6464331568    0.0028753621
   0.5032867532    0.8429891027    0.4857548923
   0.3018685182    0.1085633941    0.0049183793
   0.3359852105    0.3085212088    0.4976775485
   0.1911735383    0.1427635239    0.4946023268
   0.2199354327    0.3404161987   -0.0073793557
   0.3539181926    0.4975008887   -0.0018248812
   0.3666478391    0.6875791886    0.4938396727
   0.2325686420    0.5398012842    0.4901147164
   0.2356004072    0.7378849973   -0.0079345147
   0.3841384720    0.8831259974   -0.0065635232
   0.2629961062    0.9099574819    0.5050732115
   0.1129074731    0.3728728460    0.5021724967
   0.1118828028    0.5651000771   -0.0046704481
   0.1105515550    0.7705051172    0.5006529080
   0.1060284968    0.9729349376   -0.0082856849
