frenkel step_0
1.01693838334
  16.5412228322    0.0000000000    0.0000000000
   0.0000000000   10.3612888280    0.0000000000
   0.0000000000    0.0000000000    4.0414000000
40
Direct
   0.0296220659    0.1522411265    0.4977553441
   0.6899919329    0.0475570604    0.0027868348
   0.6039889462    0.2216134739    0.4938721170
   0.7997860110    0.0831419808    0.4949762522
   0.7598396660    0.2780891753   -0.0049970504
   0.6116138687    0.4218286170    0.0038822910
   0.6121892669    0.6263398800    0.5058984645
   0.7390469751    0.4566053983    0.5000000000
   0.7335589260    0.6488420197    0.0000000000
   0.6090496481    0.8179109448   -0.0044763825
   0.7180456783    0.8523843207    0.4954901032
   0.9171797929    0.1149268403    0.0008239899
   0.8842612216    0.3095863975    0.5026763894
   0.0022105441    0.3436850368    0.0000000000
   0.8678856953    0.5007062215   -0.0022835113
   0.8526911399    0.6956337489    0.4992403810
   0.9871719779    0.5491750389    0.5021111232
   0.9826623837    0.7402136656    0.0000000000
   0.8360297473    0.8855460674   -0.0059485179
   0.9587441906    0.9195806919    0.5000000000
   0.5293924986    0.0421382009    0.0000000000
   0.4178875242    0.0786472824    0.5011242733
   0.4580876701    0.2708942002   -0.0025221433
   0.4820625937    0.4528669688    0.4974028506
   0.4899775394    0.6420170177   -0.0036017623
   0.5035790917    0.8483675008    0.5042857509
   0.2994714031    0.1100167465   -0.0030522640
   0.3362599145    0.3072750418    0.5000000000
   0.1876855506    0.1448013726    0.4989392660
   0.2167717911    0.3389461470    0.0039713123
   0.3530012742    0.4957793749   -0.0042192114
   0.3687651400    0.6920116993    0.5017814396
   0.2338758479    0.5446202760    0.4942988543
   0.2384104021    0.7341734849    0.0010703337
   0.3833305091    0.8806406165    0.0024450833
   0.2613357484    0.9161979851    0.4965739797
   0.1107648822    0.3740412781    0.5029098088
   0.1121461294    0.5646041033    0.0009422148
   0.1110108925    0.7695015760    0.5000000000
   0.1051267043    0.9741206416    0.0010055039
